# Conjugate gradients optimization
#  Step   Current energy Av shift Mx shift   Funcs         Gradient
      0      10494.45410   0.0000   0.0000       1           515691
     10        137.42996   0.0792   0.2011      21          251.657
     20        111.60163   0.0326   0.1106      41           103.17
     30        104.14136   0.0173   0.0538      61          13.7894
     40        101.37993   0.0206   0.0588      81          18.8057
     50         99.38502   0.0132   0.0582     101          9.22978
     60         98.13815   0.0114   0.0445     122          14.2784
     70         97.36452   0.0096   0.0323     143          7.04234
     80         97.01927   0.0070   0.0227     163          3.14075
     90         96.30600   0.0068   0.0544     183           8.4867
    100         95.39719   0.0037   0.0309     203          3.33525
    110         95.17553   0.0059   0.0179     223         0.839669
    120         94.96471   0.0042   0.0178     243          1.34904
    130         94.83359   0.0100   0.0280     263          0.95022
    140         94.66288   0.0100   0.0357     283         0.976483
    149         94.51991   0.0197   0.0774     301           1.3424
# Conjugate gradients optimization
#  Step   Current energy Av shift Mx shift   Funcs         Gradient
      0       1089.83240   0.0000   0.0000       1          3922.49
     10       1066.71619   0.0050   0.0182      21          334.842
     20       1051.33545   0.0106   0.0467      41          1745.98
     30       1036.32751   0.0096   0.0448      61          1464.49
     40       1022.59937   0.0144   0.1115      81          1611.07
     50       1008.14716   0.0074   0.0332     101          724.724
     60        999.38239   0.0051   0.0219     122          469.705
     70        992.91260   0.0049   0.0166     142          220.766
     80        989.39197   0.0043   0.0154     162           145.22
     90        988.27295   0.0026   0.0088     183          47.3688
    100        987.15027   0.0038   0.0117     204          95.5751
    110        986.31604   0.0044   0.0149     224           112.59
    120        983.32312   0.0026   0.0140     244          201.863
    130        982.61218   0.0028   0.0113     264          41.2633
    140        981.93353   0.0063   0.0235     284          103.806
    149        978.68958   0.0036   0.0301     301            238.2
# Conjugate gradients optimization
#  Step   Current energy Av shift Mx shift   Funcs         Gradient
      0       4911.98193   0.0000   0.0000       1          18996.4
     10       4898.50830   0.0025   0.0130      21          1559.88
     20       4882.28613   0.0035   0.0295      41          5403.39
     30       4862.95264   0.0059   0.0468      61          9749.78
     40       4853.24316   0.0023   0.0149      81          3797.78
     50       4842.18896   0.0014   0.0143     101          985.592
     60       4840.84180   0.0006   0.0023     122          175.182
     64       4840.67529   0.0002   0.0007     130          60.8866
# Conjugate gradients optimization
#  Step   Current energy Av shift Mx shift   Funcs         Gradient
      0       9681.52148   0.0000   0.0000       1          262.777
      5       9681.39844   0.0001   0.0006      11          193.477
# Conjugate gradients optimization
#  Step   Current energy Av shift Mx shift   Funcs         Gradient
      0       9681.39844   0.0000   0.0000       1          193.477
      2       9681.36426   0.0001   0.0007       6          194.458
# Conjugate gradients optimization
#  Step   Current energy Av shift Mx shift   Funcs         Gradient
      0       9681.36426   0.0000   0.0000       1          194.458
      2       9681.30957   0.0002   0.0008       6          136.421
# Conjugate gradients optimization
#  Step   Current energy Av shift Mx shift   Funcs         Gradient
      0       9681.30957   0.0000   0.0000       1          136.421
     10       9678.88184   0.0010   0.0039      22          390.709
     15       9678.69141   0.0002   0.0009      32           131.98
# Conjugate gradients optimization
#  Step   Current energy Av shift Mx shift   Funcs         Gradient
      0       9678.60156   0.0000   0.0000       1          135.232
      1       9678.59180   0.0001   0.0004       4          106.281
# Conjugate gradients optimization
#  Step   Current energy Av shift Mx shift   Funcs         Gradient
      0       9678.59180   0.0000   0.0000       1          106.281
      7       9677.97461   0.0002   0.0006      15          176.533
# Conjugate gradients optimization
#  Step   Current energy Av shift Mx shift   Funcs         Gradient
      0       9677.51660   0.0000   0.0000       1            192.1
     10       9676.87500   0.0017   0.0058      21          562.431
     20       9675.49707   0.0019   0.0065      41          1078.54
     30       9673.33398   0.0045   0.0147      61          1199.18
     40       9672.58691   0.0003   0.0019      92          418.686
     42       9672.54785   0.0001   0.0003      96          131.837
# Conjugate gradients optimization
#  Step   Current energy Av shift Mx shift   Funcs         Gradient
      0       9672.15332   0.0000   0.0000       1          129.793
      2       9672.10840   0.0002   0.0007       5          107.142
# Conjugate gradients optimization
#  Step   Current energy Av shift Mx shift   Funcs         Gradient
      0       9672.10840   0.0000   0.0000       1          107.142
      1       9672.09375   0.0002   0.0008       3          370.081
# Conjugate gradients optimization
#  Step   Current energy Av shift Mx shift   Funcs         Gradient
      0       9672.09375   0.0000   0.0000       1          370.081
      1       9672.08203   0.0002   0.0008       4          234.442
# Conjugate gradients optimization
#  Step   Current energy Av shift Mx shift   Funcs         Gradient
      0       9672.08203   0.0000   0.0000       1          234.442
      1       9672.07422   0.0001   0.0008       4          229.417
# Conjugate gradients optimization
#  Step   Current energy Av shift Mx shift   Funcs         Gradient
      0       9672.07422   0.0000   0.0000       1          229.417
      1       9672.06250   0.0002   0.0009       4          380.476
# Conjugate gradients optimization
#  Step   Current energy Av shift Mx shift   Funcs         Gradient
      0       9672.06250   0.0000   0.0000       1          380.476
      2       9672.04590   0.0001   0.0006       6          56.5057
# Conjugate gradients optimization
#  Step   Current energy Av shift Mx shift   Funcs         Gradient
      0       9672.04590   0.0000   0.0000       1          56.5057
     10       9670.95801   0.0029   0.0116      21          520.111
     20       9670.46289   0.0011   0.0029      42          320.156
     30       9669.85742   0.0024   0.0065      62          502.097
     40       9659.94922   0.0034   0.0175      86          4208.56
     50       9658.40625   0.0006   0.0028     106          360.216
     51       9658.37012   0.0002   0.0008     108          172.459
# Conjugate gradients optimization
#  Step   Current energy Av shift Mx shift   Funcs         Gradient
      0       9658.83496   0.0000   0.0000       1          175.378
      1       9658.81641   0.0002   0.0009       4          237.292
# Conjugate gradients optimization
#  Step   Current energy Av shift Mx shift   Funcs         Gradient
      0       9658.81641   0.0000   0.0000       1          237.292
      2       9658.76953   0.0001   0.0004       6          144.167
# Conjugate gradients optimization
#  Step   Current energy Av shift Mx shift   Funcs         Gradient
      0       9658.76953   0.0000   0.0000       1          144.167
     10       9657.92480   0.0003   0.0017      22          199.936
     13       9657.83594   0.0002   0.0008      28          131.663
# Conjugate gradients optimization
#  Step   Current energy Av shift Mx shift   Funcs         Gradient
      0       9657.06445   0.0000   0.0000       1          135.678
      2       9657.05176   0.0001   0.0006       7          36.7282
# Conjugate gradients optimization
#  Step   Current energy Av shift Mx shift   Funcs         Gradient
      0       9657.05176   0.0000   0.0000       1          36.7282
      8       9656.83691   0.0005   0.0024     301          86.3315
# Conjugate gradients optimization
#  Step   Current energy Av shift Mx shift   Funcs         Gradient
      0  159755728.00000   0.0000   0.0000       1       2.1186e+18
     10      23778.33398   0.0728   0.3469      21      9.45192e+07
     20      10888.53516   0.0873   0.3569      41      3.67494e+06
     30       8202.27637   0.0362   0.0897      61           823080
     40       7420.36768   0.0188   0.0736      81           216883
     50       6991.91797   0.0157   0.0596     101           222270
     60       6741.24316   0.0094   0.0449     122           116986
     70       6604.21826   0.0205   0.0672     142           138187
     80       6471.79785   0.0095   0.0364     162          52341.3
     90       6373.85205   0.0058   0.0302     182          40621.9
    100       6278.25684   0.0090   0.0540     202          53958.8
    110       6232.17432   0.0245   0.0745     222          77626.9
    120       6077.81641   0.0103   0.0530     242           145622
    130       5981.38232   0.0081   0.0285     262          60920.5
    140       5927.04688   0.0054   0.0213     282          31994.5
# Conjugate gradients optimization
#  Step   Current energy Av shift Mx shift   Funcs         Gradient
      0       9386.70410   0.0000   0.0000       1      2.93791e+07
     10       6957.53320   0.0175   0.0691      21           208357
     20       6605.66699   0.0118   0.0630      42           208146
     30       6386.63818   0.0282   0.1928      62           388139
     40       6197.13428   0.0198   0.1113      82           130610
     50       5977.75635   0.0166   0.0681     102           126440
     60       5825.93652   0.0104   0.0355     122          44203.3
     70       5705.36816   0.0078   0.0270     142          60963.2
     80       5640.96240   0.0141   0.0513     163           131995
     90       5579.64893   0.0064   0.0292     184          22281.5
    100       5558.25537   0.0078   0.0282     204          9381.27
    110       5545.49805   0.0046   0.0170     224          4584.92
    120       5533.22217   0.0066   0.0222     244          8422.84
    130       5519.23730   0.0055   0.0244     265          10726.7
    140       5494.52490   0.0048   0.0210     285          9564.95
    148       5486.20117   0.0049   0.0243     301          4714.72
# Conjugate gradients optimization
#  Step   Current energy Av shift Mx shift   Funcs         Gradient
      0       8204.36230   0.0000   0.0000       1      1.35488e+07
     10       6660.59668   0.0133   0.0662      21           248749
     20       6297.55225   0.0170   0.0740      41           273782
     30       5919.64648   0.0253   0.1295      61           332613
     40       5722.28320   0.0094   0.0399      81          42918.2
     50       5629.31396   0.0074   0.0363     101          50591.7
     60       5590.72314   0.0051   0.0214     122          30209.7
     62       5590.95850   0.0013   0.0058     301          21908.4
# Conjugate gradients optimization
#  Step   Current energy Av shift Mx shift   Funcs         Gradient
      0       6480.96924   0.0000   0.0000       1      1.40765e+06
     10       6188.72803   0.0026   0.0112      21          29145.9
     20       6078.08545   0.0099   0.0488      41          42371.6
     30       6012.29785   0.0017   0.0117      61          16281.9
     40       5981.06934   0.0084   0.0744     142           155727
     50       5928.15088   0.0046   0.0200     163          26038.6
     60       5918.93750   0.0044   0.0234     186           123518
     70       5909.63184   0.0012   0.0072     207          5120.31
     80       5907.82373   0.0002   0.0027     227          1984.95
     87       5897.94727   0.0027   0.0092     301          20121.4
# Molecular dynamics simulation at 150.00 K
#  Step   Current energy Av shift Mx shift   Kinetic energy    Kinetic temp.
      0       5898.10693   0.0000   0.0000         53.69466        145.36824
     10       6565.66309   0.1174   0.6450       2637.77515       7141.28174
     20       6662.99414   0.1823   0.6243       5424.27881      14685.21777
     30       5484.18652   0.1437   0.6216       3819.18799      10339.73535
     40       6900.23145   0.1480   0.4707       3387.87549       9172.03809
     50       6053.25098   0.1336   0.6755       3743.29980      10134.28223
     60       8995.70508   0.1424   0.5520       4030.31030      10911.30957
     70       4383.54248   0.1350   0.5999       4056.46436      10982.11719
     80       3815.64917   0.1306   0.6095       3534.91748       9570.12695
     90       3691.21436   0.1086   0.5128       2441.10278       6608.82812
    100       2250.19556   0.1163   0.5433       2589.96802       7011.85303
    110       1147.59644   0.0965   0.4657       1893.55505       5126.44531
    120       1518.35999   0.0888   0.4707       1544.26086       4180.79688
    130       1990.94385   0.0744   0.5595       1175.71875       3183.03809
    140       1918.34985   0.0844   0.5155       1628.92065       4409.99756
    150        943.77881   0.0693   0.4594       1063.51477       2879.26685
    160        872.87390   0.0710   0.4921       1137.98901       3080.89185
    170        591.67090   0.0597   0.3258        713.64874       1932.07019
    180        655.80359   0.0627   0.3629        860.06061       2328.45288
    190        525.03351   0.0512   0.2127        452.06155       1223.87195
    200        679.72729   0.0606   0.4171        985.71259       2668.63208
# Molecular dynamics simulation at 250.00 K
#  Step   Current energy Av shift Mx shift   Kinetic energy    Kinetic temp.
      0        679.72729   0.0000   0.0000         55.40549        149.99997
     10        269.48270   0.0572   0.4750        913.48700       2473.09473
     20        602.20203   0.0604   0.5460       1260.63660       3412.93726
     30        235.52243   0.0503   0.3200        554.67072       1501.66699
     40        590.22864   0.0487   0.3921        669.74829       1813.21802
     50        478.81235   0.0484   0.4419        730.73700       1978.33350
     60        803.26233   0.0507   0.5235        913.50183       2473.13501
     70        406.42371   0.0503   0.4483        914.64532       2476.23071
     80        808.59064   0.0453   0.3936        619.11603       1676.14062
     90        258.25992   0.0417   0.4214        565.06799       1529.81567
    100        555.88849   0.0406   0.2878        440.51770       1192.61914
    110        215.70993   0.0425   0.3524        601.94049       1629.64111
    120        412.08246   0.0447   0.4086        692.23779       1874.10413
    130        275.80963   0.0431   0.4962        636.35913       1722.82312
    140        407.70129   0.0430   0.3145        512.65405       1387.91479
    150        117.52362   0.0387   0.3135        445.85477       1207.06824
    160        270.69461   0.0389   0.2914        456.71646       1236.47424
    170         83.95515   0.0351   0.2645        351.87921        952.64703
    180         75.68651   0.0385   0.3176        410.70282       1111.90088
    190        -63.73121   0.0324   0.2889        272.03339        736.47943
    200        338.57098   0.0350   0.4577        425.79379       1152.75684
# Molecular dynamics simulation at 400.00 K
#  Step   Current energy Av shift Mx shift   Kinetic energy    Kinetic temp.
      0        338.57098   0.0000   0.0000         92.34250        250.00002
     10        426.55646   0.0381   0.2893        499.72525       1352.91248
     20        312.62454   0.0370   0.3621        469.26575       1270.44910
     30        440.43732   0.0367   0.4163        497.58694       1347.12341
     40       1134.90173   0.0462   0.4967        930.20251       2518.34888
     50        427.40854   0.0376   0.3509        547.11713       1481.21704
     60        598.89441   0.0415   0.5141        898.68524       2433.02197
     70         33.87790   0.0373   0.3914        569.93604       1542.99500
     80        401.12903   0.0349   0.2749        383.68195       1038.74695
     90        177.30716   0.0411   0.4068        760.35211       2058.51074
    100         84.90793   0.0381   0.3437        551.13574       1492.09668
    110        -51.90014   0.0322   0.2675        299.52121        810.89752
    120        -28.09268   0.0329   0.2702        308.27921        834.60815
    130        -93.57942   0.0293   0.1273        163.30652        442.12180
    140       -110.77707   0.0306   0.1500        184.66353        499.94189
    150       -142.52054   0.0294   0.1448        166.70337        451.31812
    160       -111.15466   0.0308   0.1281        178.02681        481.97421
    170       -136.52298   0.0294   0.1189        155.30624        420.46255
    180       -148.76849   0.0311   0.1245        174.12398        471.40802
    190       -147.05673   0.0301   0.1112        159.30060        431.27652
    200       -162.51015   0.0297   0.0969        144.70647        391.76562
# Molecular dynamics simulation at 700.00 K
#  Step   Current energy Av shift Mx shift   Kinetic energy    Kinetic temp.
      0       -162.14673   0.0000   0.0000        147.74800        400.00003
     10       -155.44243   0.0322   0.1316        173.83229        470.61835
     20       -139.42897   0.0301   0.0981        145.26338        393.27338
     30        -74.90926   0.0360   0.1288        205.42162        556.14050
     40        -78.85716   0.0373   0.1177        215.75259        584.10968
     50        -47.06210   0.0379   0.1325        209.77118        567.91614
     60        -43.61911   0.0417   0.1290        253.81306        687.15131
     70        -75.26770   0.0412   0.1253        255.13126        690.72003
     80        -53.31554   0.0407   0.1823        258.92731        700.99713
     90        -45.13046   0.0411   0.1109        250.66537        678.62952
    100        -56.97218   0.0386   0.1643        230.07803        622.89313
    110        -26.79561   0.0424   0.1186        261.01794        706.65717
    120        -41.62601   0.0434   0.0987        268.68896        727.42499
    130        -69.03964   0.0445   0.1334        287.19128        777.51660
    140        -35.88351   0.0423   0.1004        255.98891        693.04199
    150        -76.29663   0.0435   0.1062        269.36670        729.25983
    160        -91.70404   0.0449   0.1840        302.54346        819.07971
    170        -86.51406   0.0414   0.1092        242.22308        655.77362
    180        -44.25110   0.0399   0.1010        230.38820        623.73285
    190        -53.05235   0.0426   0.1224        255.78494        692.48981
    200        -75.07437   0.0425   0.1123        258.80374        700.66260
# Molecular dynamics simulation at 1000.00 K
#  Step   Current energy Av shift Mx shift   Kinetic energy    Kinetic temp.
      0        -75.07437   0.0000   0.0000        258.55902        700.00006
     10        -51.90643   0.0443   0.1226        274.30991        742.64264
     20        -76.26843   0.0432   0.1082        255.83321        692.62048
     30         -7.51263   0.0501   0.1477        342.97073        928.52899
     40          6.11971   0.0479   0.1215        327.19067        885.80743
     50         -8.05807   0.0522   0.1497        390.17178       1056.31702
     60         26.89583   0.0504   0.1436        353.36594        956.67206
     70         45.60762   0.0490   0.1208        334.38803        905.29291
     80         50.29128   0.0498   0.1247        334.39191        905.30341
     90         37.55936   0.0529   0.1621        395.58594       1070.97473
    100         51.41348   0.0536   0.1422        380.93646       1031.31409
    110         11.22581   0.0537   0.1153        396.80273       1074.26904
    120         29.94250   0.0542   0.1397        407.24976       1102.55237
    130         17.13802   0.0520   0.1587        366.96722        993.49500
    140         36.59715   0.0539   0.1284        390.72586       1057.81702
    150         95.20631   0.0497   0.1337        335.08469        907.17896
    160         30.44839   0.0544   0.1273        387.78925       1049.86670
    170         25.27428   0.0514   0.1137        353.72772        957.65149
    180         19.84729   0.0543   0.1571        393.18414       1064.47241
    190         12.64720   0.0551   0.1297        400.45642       1084.16064
    200         -1.32616   0.0538   0.1305        377.50861       1022.03381
# Molecular dynamics simulation at 1000.00 K
#  Step   Current energy Av shift Mx shift   Kinetic energy    Kinetic temp.
      0         -1.32616   0.0000   0.0000        369.37006       1000.00018
     10         -5.48567   0.0523   0.1284        366.96024        993.47607
     20         24.75461   0.0518   0.1214        365.03918        988.27515
     30         23.82425   0.0510   0.1107        350.21603        948.14429
     40          1.58755   0.0543   0.1562        396.06076       1072.26025
     50         33.32373   0.0528   0.1154        359.77975        974.03625
     60         27.84683   0.0546   0.1380        406.18924       1099.68127
     70          2.60608   0.0544   0.1250        397.54446       1076.27710
     80         37.19270   0.0522   0.1449        364.40436        986.55652
     90         19.00946   0.0536   0.1284        372.48291       1008.42767
    100          4.02744   0.0537   0.1459        391.62286       1060.24548
    110         12.47914   0.0569   0.1282        420.93433       1139.60083
    120         52.27339   0.0539   0.1248        385.67511       1044.14307
    130         -3.71463   0.0567   0.1384        425.17542       1151.08276
    140         17.09917   0.0569   0.1176        417.55688       1130.45703
    150         81.84625   0.0529   0.1294        370.40137       1002.79230
    160         43.93282   0.0548   0.1372        392.17676       1061.74512
    170         32.90457   0.0569   0.1345        419.40067       1135.44873
    180         63.31799   0.0537   0.1442        389.22372       1053.75024
    190         64.51735   0.0567   0.1396        424.04440       1148.02075
    200         25.52562   0.0547   0.1399        394.47534       1067.96802
    210         55.39133   0.0570   0.1323        436.83405       1182.64636
    220         58.77681   0.0571   0.1339        429.32452       1162.31567
    230         29.20418   0.0582   0.1363        441.44943       1195.14160
    240         42.86456   0.0566   0.1445        445.62723       1206.45215
    250         48.44183   0.0562   0.1195        418.14337       1132.04480
    260         72.50974   0.0569   0.1507        431.48047       1168.15247
    270         35.06610   0.0587   0.1548        467.26819       1265.04102
    280         55.91776   0.0591   0.1388        469.93686       1272.26599
    290         84.72485   0.0573   0.1569        444.59470       1203.65686
    300         94.13095   0.0571   0.1319        429.33435       1162.34229
    310         47.52667   0.0575   0.1368        434.76456       1177.04358
    320         81.44328   0.0587   0.1182        443.20197       1199.88623
    330         25.60379   0.0599   0.1417        475.87982       1288.35547
    340         74.75887   0.0589   0.1241        452.21585       1224.28967
    350         48.92014   0.0590   0.1207        453.96774       1229.03259
    360         45.29643   0.0609   0.1438        493.32700       1335.59033
    370         59.76079   0.0593   0.1363        462.23962       1251.42712
    380         79.25842   0.0563   0.1269        421.25198       1140.46082
    390         37.14540   0.0625   0.1326        528.33295       1430.36243
    400         44.75294   0.0620   0.1360        505.84351       1369.47644
    410         22.13931   0.0540   0.1187        395.25949       1070.09094
    420         -9.23123   0.0573   0.1304        429.63739       1163.16272
    430        -24.77078   0.0561   0.1410        422.25922       1143.18774
    440         62.39085   0.0568   0.1561        432.55148       1171.05212
    450        -15.95625   0.0580   0.1356        441.11029       1194.22339
    460        -29.53719   0.0578   0.1475        451.86636       1223.34351
    470         23.94272   0.0561   0.1392        405.32114       1097.33105
    480         19.79742   0.0572   0.1149        421.79819       1141.93958
    490         56.75792   0.0538   0.1125        379.44513       1027.27661
    500         20.81874   0.0542   0.1263        385.13174       1042.67200
    510         -0.55125   0.0555   0.1225        402.84235       1090.62012
    520         62.85052   0.0533   0.1016        367.53806        995.04041
    530          9.66806   0.0561   0.1329        418.53189       1133.09668
    540         -9.52988   0.0580   0.1364        438.97961       1188.45508
    550         21.89600   0.0574   0.1423        436.48367       1181.69775
    560         36.84923   0.0573   0.1540        434.06894       1175.16028
    570         79.93132   0.0568   0.1264        433.40234       1173.35559
    580         31.06499   0.0579   0.1498        444.56131       1203.56641
    590         19.80153   0.0593   0.1350        457.82159       1239.46619
    600         19.42308   0.0589   0.1481        463.88409       1255.87927
# Molecular dynamics simulation at 800.00 K
#  Step   Current energy Av shift Mx shift   Kinetic energy    Kinetic temp.
      0         19.42308   0.0000   0.0000        369.36996        999.99994
     10        -51.97745   0.0586   0.1150        447.57504       1211.72559
     20        -30.34576   0.0557   0.1248        411.31235       1113.55115
     30          7.57713   0.0559   0.1380        422.48251       1143.79224
     40         15.29704   0.0564   0.1316        406.08655       1099.40320
     50         10.39896   0.0566   0.1074        419.28265       1135.12915
     60         10.61496   0.0594   0.1293        453.26309       1227.12488
     70        -28.29924   0.0573   0.1296        435.32269       1178.55457
     80        -24.13188   0.0610   0.1366        487.39694       1319.53589
     90         -3.51170   0.0574   0.1379        432.24414       1170.21997
    100         53.79329   0.0581   0.1244        438.13055       1186.15637
    110         13.07916   0.0569   0.1366        427.81696       1158.23425
    120         44.42026   0.0563   0.1283        415.61920       1125.21106
    130         16.27237   0.0582   0.1410        455.97473       1234.46606
    140         62.97559   0.0560   0.1314        402.04086       1088.45032
    150         40.20831   0.0590   0.1148        444.89963       1204.48230
    160         31.77222   0.0548   0.1338        408.05133       1104.72253
    170         51.70853   0.0581   0.1181        453.15475       1226.83154
    180         20.80804   0.0578   0.1059        429.42545       1162.58887
    190         42.97588   0.0605   0.1278        475.92096       1288.46680
    200         53.42444   0.0572   0.1370        444.76627       1204.12134
    210          5.33011   0.0509   0.1098        334.59061        905.84137
    220         -0.98683   0.0511   0.1274        345.95270        936.60211
    230         -8.14957   0.0528   0.1269        364.63364        987.17725
    240        -26.90237   0.0550   0.1163        386.87253       1047.38489
    250        -19.62025   0.0544   0.1272        396.30765       1072.92871
    260         -7.90186   0.0528   0.1191        366.86728        993.22443
    270        -33.58270   0.0548   0.1246        392.09937       1061.53552
    280        -18.36331   0.0553   0.1243        395.73441       1071.37671
    290          2.62489   0.0519   0.1341        365.79672        990.32605
    300         12.71376   0.0544   0.1248        389.34314       1054.07361
    310        -29.35561   0.0544   0.1229        392.64243       1063.00574
    320         19.49448   0.0545   0.1244        394.30173       1067.49805
    330        -11.54935   0.0572   0.1372        421.41620       1140.90540
    340         -5.59268   0.0554   0.1301        402.79794       1090.49988
    350        -18.60150   0.0560   0.1266        404.04282       1093.87024
    360         13.33598   0.0565   0.1306        412.99454       1118.10535
    370        -24.80296   0.0576   0.1120        429.67239       1163.25745
    380         23.25658   0.0559   0.1331        423.13599       1145.56140
    390         -6.40372   0.0567   0.1366        426.74774       1155.33948
    400        -12.74355   0.0576   0.1212        424.33978       1148.82043
    410        -49.28121   0.0536   0.1214        375.24399       1015.90277
    420        -86.96791   0.0559   0.1367        410.18988       1110.51221
    430        -92.62161   0.0555   0.1151        392.73035       1063.24377
    440        -60.94979   0.0552   0.1206        388.21704       1051.02490
    450        -60.44996   0.0559   0.1291        403.38605       1092.09216
    460        -21.22469   0.0529   0.1173        372.46594       1008.38171
    470        -13.46567   0.0522   0.1199        358.47055        970.49182
    480        -19.55325   0.0545   0.1198        390.00739       1055.87195
    490        -14.04514   0.0529   0.1333        361.39810        978.41760
    500        -12.83954   0.0553   0.1189        398.84015       1079.78491
    510        -53.27187   0.0551   0.1204        397.02744       1074.87732
    520        -14.41634   0.0549   0.1674        414.17914       1121.31238
    530        -55.87259   0.0568   0.1498        436.70526       1182.29761
    540        -23.97910   0.0554   0.1329        413.79355       1120.26843