# Conjugate gradients optimization
#  Step   Current energy Av shift Mx shift   Funcs         Gradient
      0      10932.66895   0.0000   0.0000       1           530913
     10        117.69483   0.0602   0.1969      21          211.236
     20         98.87984   0.0237   0.0771      41          51.0677
     30         89.67139   0.0327   0.1002      61          61.7269
     40         83.25803   0.0159   0.0426      81          21.8059
     50         80.73335   0.0074   0.0298     101          10.8028
     60         79.21778   0.0120   0.0518     121          12.4023
     70         76.85803   0.0080   0.0554     141          11.2016
     80         75.95242   0.0077   0.0338     161          4.17176
     90         75.15282   0.0071   0.0252     181          2.89046
    100         74.51545   0.0054   0.0260     201          1.97374
    110         74.05377   0.0069   0.0247     221          2.05599
    120         73.61872   0.0102   0.0443     241          2.82842
    130         72.92686   0.0068   0.0372     261          3.94068
    140         72.64606   0.0039   0.0157     282          1.63464
    149         72.28159   0.0052   0.0253     301          4.65636
# Conjugate gradients optimization
#  Step   Current energy Av shift Mx shift   Funcs         Gradient
      0        746.00806   0.0000   0.0000       1          1906.79
     10        734.33685   0.0036   0.0273      21          317.956
     20        732.03638   0.0067   0.0194      41           81.569
     30        729.75293   0.0140   0.0446      61          686.998
     40        726.29657   0.0055   0.0220      81          161.886
     50        720.70703   0.0075   0.0375     101          727.022
     60        713.47681   0.0058   0.0334     121           524.91
     70        709.88885   0.0062   0.0269     141          224.215
     80        706.20642   0.0044   0.0421     162          476.746
     90        703.72198   0.0012   0.0042     183          31.8286
    100        702.17566   0.0030   0.0152     203          59.7885
    110        700.76410   0.0021   0.0060     223           38.045
    120        699.87030   0.0032   0.0213     256          62.1707
    130        699.14465   0.0040   0.0175     276          35.1848
    140        698.55640   0.0111   0.0449     296          89.6567
    143        698.27704   0.0077   0.0301     301          73.9913
# Conjugate gradients optimization
#  Step   Current energy Av shift Mx shift   Funcs         Gradient
      0       3489.97583   0.0000   0.0000       1          2252.24
     10       3475.84985   0.0022   0.0096      23          2044.93
     20       3463.56323   0.0031   0.0183      43          2678.29
     30       3459.29980   0.0035   0.0226      64          1006.51
     40       3454.98120   0.0027   0.0101      85          1188.29
     50       3444.15381   0.0072   0.0453     106            11601
     60       3433.72266   0.0040   0.0290     126          2020.79
     70       3426.87720   0.0006   0.0039     157          423.543
     80       3424.35059   0.0032   0.0090     177          627.781
     90       3421.91089   0.0034   0.0088     197          568.189
    100       3419.72778   0.0091   0.0208     217          1031.25
    110       3407.38696   0.0085   0.0814     252          15720.3
    120       3395.01880   0.0026   0.0154     272           1463.5
    130       3386.72168   0.0023   0.0108     292          1122.99
    135       3385.85376   0.0020   0.0130     301          418.599
# Conjugate gradients optimization
#  Step   Current energy Av shift Mx shift   Funcs         Gradient
      0       6771.56104   0.0000   0.0000       1          2285.44
     10       6758.35986   0.0015   0.0094      21             3258
     20       6754.55420   0.0036   0.0122      41          2045.03
     30       6744.69385   0.0030   0.0100      61          7806.98
     40       6735.15918   0.0187   0.0568      81          49441.1
     50       6722.64941   0.0026   0.0089     101          3067.26
     60       6714.95996   0.0023   0.0093     122          3716.27
     70       6703.44727   0.0072   0.0397     143          26693.4
     80       6674.80127   0.0036   0.0297     163            20803
     90       6667.34912   0.0036   0.0182     183          3553.35
    100       6635.30322   0.0051   0.0425     204            77680
    110       6595.89893   0.0034   0.0248     224          14479.1
    120       6585.72314   0.0028   0.0141     244          3779.23
    130       6580.98486   0.0031   0.0133     265          2137.45
    140       6578.87305   0.0033   0.0085     285          1331.12
    148       6571.28613   0.0021   0.0065     301          6291.71
# Conjugate gradients optimization
#  Step   Current energy Av shift Mx shift   Funcs         Gradient
      0       6571.44873   0.0000   0.0000       1          7525.25
     10       6568.36426   0.0002   0.0015      22          241.864
     20       6567.24219   0.0004   0.0015      42          267.798
     30       6566.58398   0.0021   0.0045      62          724.603
     40       6566.03516   0.0003   0.0012      82           264.84
     41       6566.00439   0.0002   0.0006      84          98.1328
# Conjugate gradients optimization
#  Step   Current energy Av shift Mx shift   Funcs         Gradient
      0       6565.93848   0.0000   0.0000       1          110.355
      1       6565.93701   0.0000   0.0002       5          72.0994
# Conjugate gradients optimization
#  Step   Current energy Av shift Mx shift   Funcs         Gradient
      0       6565.93701   0.0000   0.0000       1          72.0994
      3       6565.87695   0.0002   0.0010       7          136.539
# Conjugate gradients optimization
#  Step   Current energy Av shift Mx shift   Funcs         Gradient
      0       6565.80078   0.0000   0.0000       1          141.372
      1       6565.79980   0.0001   0.0009       4          155.813
# Conjugate gradients optimization
#  Step   Current energy Av shift Mx shift   Funcs         Gradient
      0       6565.79395   0.0000   0.0000       1          157.318
      1       6565.78027   0.0001   0.0007       5          43.3491
# Conjugate gradients optimization
#  Step   Current energy Av shift Mx shift   Funcs         Gradient
      0       6565.78027   0.0000   0.0000       1          43.3491
      1       6565.76709   0.0002   0.0008       4          190.945
# Conjugate gradients optimization
#  Step   Current energy Av shift Mx shift   Funcs         Gradient
      0       6565.76709   0.0000   0.0000       1          190.945
      2       6565.75537   0.0000   0.0005       7          24.3429
# Conjugate gradients optimization
#  Step   Current energy Av shift Mx shift   Funcs         Gradient
      0       6565.75537   0.0000   0.0000       1          24.3429
      3       6565.71338   0.0001   0.0005       7          67.4181
# Conjugate gradients optimization
#  Step   Current energy Av shift Mx shift   Funcs         Gradient
      0       6565.80420   0.0000   0.0000       1          70.5429
      1       6565.80273   0.0001   0.0009       5          116.742
# Conjugate gradients optimization
#  Step   Current energy Av shift Mx shift   Funcs         Gradient
      0       6565.80273   0.0000   0.0000       1          116.742
      1       6565.79736   0.0001   0.0009       5          62.6764
# Conjugate gradients optimization
#  Step   Current energy Av shift Mx shift   Funcs         Gradient
      0       6565.79736   0.0000   0.0000       1          62.6764
      1       6565.79736   0.0000   0.0005       6          31.3647
# Conjugate gradients optimization
#  Step   Current energy Av shift Mx shift   Funcs         Gradient
      0       6565.79736   0.0000   0.0000       1          31.3647
      1       6565.79053   0.0001   0.0007       5          77.2927
# Conjugate gradients optimization
#  Step   Current energy Av shift Mx shift   Funcs         Gradient
      0       6565.79053   0.0000   0.0000       1          77.2927
      1       6565.77930   0.0000   0.0006       6          26.5207
# Conjugate gradients optimization
#  Step   Current energy Av shift Mx shift   Funcs         Gradient
      0       6565.77295   0.0000   0.0000       1          29.1028
      1       6565.77246   0.0000   0.0001       9          22.1141
# Conjugate gradients optimization
#  Step   Current energy Av shift Mx shift   Funcs         Gradient
      0       6565.77881   0.0000   0.0000       1          21.3598
      1       6565.77783   0.0000   0.0000     301          21.3598
# Conjugate gradients optimization
#  Step   Current energy Av shift Mx shift   Funcs         Gradient
      0       6565.77783   0.0000   0.0000       1          20.8397
     10       6564.42236   0.0016   0.0038      21          517.457
     20       6552.78809   0.0029   0.0217      54          24261.6
     30       6533.60693   0.0019   0.0072      74          3089.91
     40       6524.31104   0.0020   0.0064      94          3150.69
     50       6522.47900   0.0027   0.0105     126           2690.2
     60       6495.12744   0.0035   0.0191     147          11794.3
     70       6483.39990   0.0053   0.0182     167          5193.49
     80       6475.27197   0.0011   0.0044     189          2380.57
     90       6442.07422   0.0028   0.0296     210          29484.4
    100       6420.27246   0.0018   0.0196     231          8881.07
    110       6414.87744   0.0018   0.0166     251          2808.52
    120       6412.11523   0.0015   0.0092     271           1481.8
    130       6410.75537   0.0002   0.0021     291          313.728
    131       6410.72803   0.0001   0.0005     293          169.987
# Conjugate gradients optimization
#  Step   Current energy Av shift Mx shift   Funcs         Gradient
      0       6410.72803   0.0000   0.0000       1          169.987
     10       6410.32080   0.0006   0.0021      21          1025.22
     12       6410.26416   0.0002   0.0007      25          139.286
# Conjugate gradients optimization
#  Step   Current energy Av shift Mx shift   Funcs         Gradient
      0       6410.26416   0.0000   0.0000       1          139.286
      1       6410.26270   0.0000   0.0001       5          79.6997
# Conjugate gradients optimization
#  Step   Current energy Av shift Mx shift   Funcs         Gradient
      0   32523564.00000   0.0000   0.0000       1       1.4415e+17
     10       8683.01953   0.0764   0.2789      21      3.19641e+06
     20       6794.21875   0.0272   0.0833      41           370330
     30       6273.95557   0.0151   0.0596      62           219692
     40       6011.64453   0.0091   0.0456      82           207777
     50       5831.88965   0.0103   0.0359     102          86272.8
     60       5760.12695   0.0065   0.0269     122           136449
     70       5712.99658   0.0013   0.0071     142          39911.6
     80       5676.88232   0.0066   0.0336     163          74474.4
     90       5643.35840   0.0013   0.0087     189           613763
     94       5642.20654   0.0001   0.0005     197           107320
# Conjugate gradients optimization
#  Step   Current energy Av shift Mx shift   Funcs         Gradient
      0       9437.29102   0.0000   0.0000       1      5.65794e+07
     10       6757.81738   0.0162   0.0506      21           855630
     20       6163.52051   0.0102   0.0506      41           230873
     30       5745.81738   0.0074   0.0403      61           446342
     40       4797.37695   0.0326   0.2586      81           474172
     50       4422.69775   0.0122   0.0558     101           113871
     60       4240.68896   0.0118   0.0565     122           301898
     70       4154.05371   0.0058   0.0186     142          34019.5
     80       3996.99854   0.0084   0.0340     162          73232.7
     90       3918.04517   0.0074   0.0233     182          56777.4
    100       3858.03882   0.0119   0.0579     202           143235
    110       3777.19775   0.0070   0.0364     222          32860.6
    120       3689.28076   0.0019   0.0113     242          72618.1
    130       3658.15063   0.0034   0.0186     264          50335.6
    140       3646.51392   0.0007   0.0054     284            68741
    148       3637.05493   0.0005   0.0024     301          32868.7
# Conjugate gradients optimization
#  Step   Current energy Av shift Mx shift   Funcs         Gradient
      0       4629.03369   0.0000   0.0000       1      2.13354e+06
     10       4261.18506   0.0073   0.0425      21           226416
     20       3883.52271   0.0186   0.0803      41           294275
     30       3675.94653   0.0064   0.0207      61            54758
     40       3571.47021   0.0125   0.0578      81          48000.7
     50       3476.14624   0.0066   0.0417     102           180031
     60       3427.47412   0.0083   0.0658     123          12572.3
     70       3378.85864   0.0054   0.0211     144          17988.6
     80       3363.53516   0.0007   0.0024     175          16052.8
     90       3358.72388   0.0006   0.0020     195          11019.5
    100       3351.29272   0.0035   0.0134     216          22393.6
    110       3340.39893   0.0049   0.0228     236          15518.2
    120       3313.33276   0.0010   0.0040     257          81608.2
    130       3302.28491   0.0018   0.0098     292          25901.5
    135       3300.08301   0.0016   0.0089     301           8628.4
# Conjugate gradients optimization
#  Step   Current energy Av shift Mx shift   Funcs         Gradient
      0       3670.04297   0.0000   0.0000       1           338924
     10       3619.97974   0.0029   0.0116      21          25009.5
     20       3572.41211   0.0046   0.0269      41            31743
# Molecular dynamics simulation at 150.00 K
#  Step   Current energy Av shift Mx shift   Kinetic energy    Kinetic temp.
      0       3552.26440   0.0000   0.0000         59.69105        161.60233
     10       3322.85498   0.1059   0.3283       1754.39844       4749.70508
     20       2673.47339   0.1587   0.4041       3337.69824       9036.19238
     30       1886.89893   0.1063   0.3209       1555.26672       4210.59326
     40       1900.79846   0.1049   0.2789       1496.93359       4052.66724
     50       1370.92212   0.0778   0.1892        816.34430       2210.09912
     60       1390.61902   0.0799   0.1897        839.02252       2271.49634
     70       1031.86243   0.0592   0.1503        479.73953       1298.80481
     80       1053.81372   0.0593   0.1285        466.38672       1262.65466
     90        862.18762   0.0469   0.1412        299.51846        810.89008
    100        885.75916   0.0470   0.1020        295.65894        800.44116
    110        753.05707   0.0392   0.1541        212.08836        574.18951
    120        766.13470   0.0401   0.1003        213.72777        578.62787
    130       1061.17578   0.0380   0.1565        242.24387        655.82983
    140        829.88110   0.0487   0.4084        688.08221       1862.85364
    150        549.45898   0.0408   0.4100        461.67499       1249.89844
    160        577.15131   0.0379   0.2521        314.64172        851.83350
    170       1080.48145   0.0459   0.4636        800.52930       2167.28296
    180        992.63037   0.0545   0.5323       1309.55188       3545.36621
    190        779.11523   0.0357   0.2742        326.82779        884.82501
    200        773.17365   0.0408   0.2854        450.85730       1220.61169
# Molecular dynamics simulation at 250.00 K
#  Step   Current energy Av shift Mx shift   Kinetic energy    Kinetic temp.
      0        773.22101   0.0000   0.0000         55.40550        150.00002
     10        614.98645   0.0423   0.3720        565.60938       1531.28137
     20        902.06665   0.0407   0.3744        540.42651       1463.10352
     30       1559.62170   0.0441   0.5007        701.17676       1898.30469
     40       1509.37854   0.0418   0.3735        605.11816       1638.24402
     50        517.61212   0.0463   0.3873        824.15479       2231.24463
     60       1002.42993   0.0474   0.4946        970.08636       2626.32690
     70        664.76489   0.0417   0.4219        694.41541       1879.99951
     80       1057.80176   0.0482   0.5270       1003.85168       2717.74023
     90        878.13501   0.0500   0.4733       1152.39380       3119.89014
    100       1483.15210   0.0615   0.6755       2049.89355       5549.70264
    110       1360.06641   0.0592   0.4445       1195.99695       3237.93750
    120       1953.07153   0.0700   0.5091       1748.02332       4732.44531
    130       3046.49390   0.0738   0.5518       2049.93921       5549.82617
    140       2659.66455   0.0836   0.5728       2261.38232       6122.26855
    150       2980.91138   0.0777   0.5602       1967.37683       5326.30420
    160       2212.38843   0.0712   0.5159       1530.35461       4143.14844
    170       2307.26538   0.0713   0.4289       1455.23755       3939.78296
    180       2026.70496   0.0829   0.4876       2140.94946       5796.21924
    190        950.18982   0.0706   0.4109       1441.35596       3902.20117
    200       2617.18481   0.0827   0.4481       1930.76819       5227.19287
# Molecular dynamics simulation at 400.00 K
#  Step   Current energy Av shift Mx shift   Kinetic energy    Kinetic temp.
      0       2617.18481   0.0000   0.0000         92.34249        249.99998
     10        882.80371   0.0718   0.6348       1590.96765       4307.24658
     20       1711.77576   0.0748   0.6585       1767.86511       4786.16357
     30        887.05804   0.0594   0.3701        897.44830       2429.67310
     40       1048.75854   0.0607   0.4028        968.55023       2622.16821
     50        777.27722   0.0644   0.4226       1166.69702       3158.61353
     60       1049.39099   0.0686   0.5752       1561.01538       4226.15674
     70        831.85083   0.0677   0.5137       1549.09436       4193.88281
     80       1568.52161   0.0650   0.4017       1232.42798       3336.56787
     90        462.87869   0.0620   0.4532       1165.96875       3156.64185
    100       1071.72583   0.0603   0.4017       1030.87122       2790.89062
    110        718.42773   0.0621   0.4547       1216.88928       3294.49976
    120        542.45154   0.0629   0.4894       1293.25647       3501.24951
    130        542.66357   0.0503   0.3942        716.11072       1938.73560
    140        719.26428   0.0599   0.4140       1097.36792       2970.91797
    150        181.71854   0.0541   0.3722        770.04932       2084.76416
    160        831.40717   0.0511   0.6335       1037.92334       2809.98291
    170       1416.70068   0.0533   0.5650       1152.55347       3120.32251
    180        956.92163   0.0502   0.5211        876.95660       2374.19556
    190        463.31052   0.0475   0.3883        719.44958       1947.77490
    200        585.84393   0.0441   0.3984        667.40289       1806.86829
# Molecular dynamics simulation at 700.00 K
#  Step   Current energy Av shift Mx shift   Kinetic energy    Kinetic temp.
      0        585.84393   0.0000   0.0000        147.74794        399.99985
     10         76.27148   0.0437   0.3364        509.98654       1380.69299
     20        263.31732   0.0432   0.3037        494.00372       1337.42249
     30         52.49594   0.0409   0.2671        411.62692       1114.40271
     40        839.21729   0.0429   0.2847        490.59134       1328.18408
     50        599.67310   0.0480   0.3798        696.14191       1884.67371
     60        531.61743   0.0549   0.6031       1204.46790       3260.87109
     70        262.36084   0.0467   0.4617        802.03198       2171.35132
     80        337.20670   0.0479   0.5505       1060.10999       2870.04907
     90        156.81195   0.0457   0.3933        788.95099       2135.93701
    100        377.30591   0.0408   0.3459        516.15814       1397.40137
    110       1159.20972   0.0460   0.4909        992.27759       2686.40552
    120        625.95312   0.0507   0.6745       1393.64917       3773.04395
    130        593.09924   0.0342   0.2419        327.46741        886.55664
    140        784.99719   0.0352   0.2594        320.92776        868.85175
    150        980.64636   0.0439   0.5004        755.95349       2046.60242
    160        233.81992   0.0520   0.5757       1138.23682       3081.56274
    170        289.50998   0.0419   0.3387        570.80304       1545.34229
    180        827.23462   0.0529   0.4196       1054.33923       2854.42578
    190        390.89587   0.0565   0.6611       1495.70923       4049.35229
    200        880.62463   0.0596   0.5880       1590.39514       4305.69678
# Molecular dynamics simulation at 1000.00 K
#  Step   Current energy Av shift Mx shift   Kinetic energy    Kinetic temp.
      0        880.62463   0.0000   0.0000        258.55899        700.00000
     10        477.32812   0.0424   0.3662        666.18701       1803.57642
     20       1216.01453   0.0470   0.4802        932.09393       2523.46973
     30        769.28040   0.0511   0.5577       1068.88867       2893.81567
     40        915.69055   0.0550   0.5417       1298.23975       3514.74072
     50        355.02844   0.0509   0.4502        892.24347       2415.58203
     60       1054.02283   0.0488   0.4507        714.71625       1934.96033
     70        250.28015   0.0476   0.3973        664.67230       1799.47571
     80        662.70612   0.0480   0.3669        654.85022       1772.88428
     90        233.06796   0.0446   0.3394        491.91400       1331.76501
    100       1417.01306   0.0586   0.5189       1243.65369       3366.95923
    110       2422.68945   0.0490   0.5123        942.68188       2552.13452
    120       1208.17297   0.0601   0.6755       1849.49585       5007.16357
    130        398.71936   0.0495   0.5339       1046.23535       2832.48608
    140        216.96521   0.0450   0.4359        817.36133       2212.85254
    150        344.22537   0.0402   0.3239        489.38904       1324.92908
    160        363.66992   0.0429   0.3507        594.05981       1608.30566
    170        269.42682   0.0422   0.4264        582.36145       1576.63452
    180        517.99121   0.0514   0.6270       1241.75708       3361.82446
    190        381.46307   0.0466   0.4556        820.01599       2220.03955
    200       1010.21960   0.0544   0.5784       1320.69604       3575.53711
# Molecular dynamics simulation at 1000.00 K
#  Step   Current energy Av shift Mx shift   Kinetic energy    Kinetic temp.
      0       1010.21960   0.0000   0.0000        369.37000       1000.00006
     10        869.08478   0.0460   0.4743        840.44360       2275.34351
     20       1055.74597   0.0470   0.4162        829.45087       2245.58276
     30        891.35632   0.0502   0.4027        797.93695       2160.26465
     40        662.96320   0.0558   0.4412       1059.26477       2867.76074
     50        772.88599   0.0675   0.6755       1935.08765       5238.88721
     60       1920.80713   0.0620   0.5544       1301.31531       3523.06738
     70       1118.89941   0.0675   0.5414       1456.27966       3942.60425
     80        881.97607   0.0720   0.5227       1495.18958       4047.94556
     90       1504.90381   0.0698   0.3647       1179.08044       3192.13940
    100       1084.20203   0.0799   0.5796       1842.87817       4989.24707
    110       1603.80225   0.0837   0.4392       1704.26013       4613.96484
    120       1788.15405   0.0810   0.3016       1267.67017       3431.97949
    130       1410.69519   0.0980   0.5356       2104.31714       5697.04443
    140       1873.79944   0.0947   0.6346       2311.21826       6257.19043
    150       1555.24707   0.0855   0.3610       1434.80322       3884.46069
    160       1931.55518   0.0987   0.6129       2155.56763       5835.79541
    170       2016.28418   0.1025   0.4739       2181.85278       5906.95752
    180       1325.02930   0.1073   0.5617       2259.12646       6116.16162
    190       2151.76318   0.1025   0.4288       2159.53052       5846.52393
    200       2354.84863   0.1038   0.4125       1933.38354       5234.27344
    210       1265.05054   0.0910   0.5007       1678.54175       4544.33740
    220       1602.07434   0.0913   0.4522       1701.61853       4606.81348
    230       1523.42053   0.0974   0.4517       1824.61731       4939.80957
    240       1661.86011   0.0911   0.4483       1684.34875       4560.05859
    250       1598.83350   0.0991   0.4837       2148.14282       5815.69385
    260       1362.25842   0.0993   0.4294       1902.45215       5150.53271
    270       1718.83728   0.1123   0.4210       2311.15356       6257.01514
    280       2282.29395   0.1127   0.3804       2218.47607       6006.10840
    290       2958.66602   0.1154   0.4209       2345.68677       6350.50732
    300       3309.52832   0.1327   0.5287       3550.75806       9613.01172
    310       3041.99780   0.1421   0.4293       3689.96899       9989.89941
    320       3762.86206   0.1216   0.3980       2511.78540       6800.18799
    330       3336.67651   0.1349   0.4559       3140.38452       8502.00293
    340       3106.43213   0.1316   0.4515       2902.97705       7859.26611
    350       2930.02979   0.1303   0.4648       2877.29419       7789.73486
    360       2662.52612   0.1316   0.4183       2981.89551       8072.92334
    370       3398.89844   0.1550   0.6755       4698.63037      12720.66113
    380       4454.05518   0.1542   0.5727       4198.68359      11367.14844
    390       4118.54688   0.1659   0.5950       4628.22217      12530.04395
    400       5069.67529   0.1698   0.5319       4915.14014      13306.82031
    410       2619.26636   0.1273   0.4615       2823.29395       7643.53906
    420       2464.55371   0.1340   0.4924       3261.82642       8830.78320
    430       3040.87598   0.1225   0.4161       2510.57349       6796.90723
    440       2826.47534   0.1208   0.4260       2482.17285       6720.01758
    450       2509.95801   0.1413   0.4265       3396.82788       9196.27441
    460       3288.04785   0.1403   0.4440       3345.63525       9057.68066
    470       2826.65430   0.1450   0.5432       3870.38013      10478.32910
    480       3886.80737   0.1626   0.6427       4690.81885      12699.51270
    490       3335.65869   0.1593   0.5820       4532.46924      12270.81055
    500       4167.69971   0.1582   0.5771       4213.29834      11406.71582
    510       4611.41504   0.1661   0.5526       4811.29932      13025.69141
    520       3583.46777   0.1761   0.5774       5267.58545      14261.00000
    530       3931.69922   0.1774   0.5245       5144.94531      13928.97559
    540       4713.72363   0.1681   0.4735       4559.43408      12343.81348
    550       3808.78223   0.1667   0.4626       4523.80273      12247.34766
    560       3911.70435   0.1887   0.4483       5437.07910      14719.87305
    570       3898.61816   0.1867   0.4736       5530.39062      14972.49609
    580       5125.66846   0.1797   0.4703       5082.14844      13758.96387
    590       4260.21777   0.1954   0.5222       5999.77393      16243.26367
    600       5004.06689   0.1964   0.4769       5779.67334      15647.38184
# Molecular dynamics simulation at 800.00 K
#  Step   Current energy Av shift Mx shift   Kinetic energy    Kinetic temp.
      0       5004.06689   0.0000   0.0000        369.37003       1000.00012
     10       3705.50342   0.1565   0.6435       4309.70215      11667.71094
     20       5236.24268   0.1620   0.4463       4302.20752      11647.42090
     30       4726.91162   0.1720   0.5664       5123.12061      13869.88867
     40       5589.96777   0.1636   0.5146       4470.46533      12102.94727
     50       5061.50098   0.1605   0.4423       3984.16382      10786.37695
     60       4776.69043   0.1871   0.6318       5858.77539      15861.53613
     70       5591.21973   0.1739   0.5369       4931.34326      13350.68750
     80       5961.09131   0.1884   0.5643       5765.08936      15607.89844
     90       5883.61035   0.1760   0.4949       5002.58740      13543.56738
    100       5104.29932   0.1884   0.4649       5489.85986      14862.76660
    110       5371.94629   0.1981   0.6151       6117.60400      16562.26562
    120       6810.36133   0.1970   0.5587       5949.78564      16107.92969
    130       5871.26123   0.1870   0.4978       5593.81641      15144.20996
    140       6153.07520   0.1928   0.4606       5537.50342      14991.75293
    150       5578.66895   0.2046   0.6715       6896.45361      18670.85547
    160       4714.47119   0.2138   0.5990       7113.62207      19258.79883
    170       5460.82471   0.2106   0.4978       6736.09766      18236.72266
    180       4661.64648   0.2110   0.4894       6691.02246      18114.68945
    190       6024.01660   0.2226   0.6755       7418.50146      20084.20312
    200       6519.68604   0.2145   0.6014       6811.57031      18441.05078
    210       4660.57617   0.1675   0.4940       4194.79199      11356.61328
    220       4744.73682   0.1710   0.4819       4543.34717      12300.26074
    230       5348.51221   0.2053   0.6659       6696.77783      18130.27148
    240       5326.46680   0.1833   0.5598       5175.91211      14012.81152
    250       4964.77393   0.1972   0.5017       5719.16895      15483.57812
    260       4027.79443   0.1833   0.4691       4952.85010      13408.91309
    270       5022.85938   0.1819   0.5576       4933.83838      13357.44238
    280       5429.71826   0.1875   0.6047       5266.82715      14258.94727
    290       5094.75342   0.1955   0.4928       5631.43701      15246.06055
    300       5856.95312   0.2080   0.5638       6588.50635      17837.14648
    310       4992.08350   0.2212   0.5440       7204.28613      19504.25391
    320       7116.56396   0.2191   0.5680       6885.35498      18640.80859
    330       7252.45654   0.2333   0.5813       7966.42432      21567.60156