# Conjugate gradients optimization
#  Step   Current energy Av shift Mx shift   Funcs         Gradient
      0      11728.09961   0.0000   0.0000       1           564477
     10        124.88101   0.1057   0.4054      21          299.055
     20         85.79060   0.0570   0.1743      41          142.529
     30         70.85172   0.0299   0.0936      61          105.493
     40         67.43804   0.0102   0.0292      81          12.0752
     50         65.35737   0.0086   0.0286     101          4.29213
     60         64.67473   0.0370   0.1703     122           24.453
     70         63.55491   0.0039   0.0117     142          1.72634
     80         63.09715   0.0065   0.0223     162          3.34689
     90         62.35664   0.0048   0.0201     182          2.36848
    100         62.15989   0.0040   0.0126     202          1.18307
    110         61.98905   0.0092   0.0516     222          1.40076
    120         61.60879   0.0070   0.0256     243          2.45997
    130         61.26928   0.0028   0.0094     263          1.02473
    140         61.03798   0.0137   0.0441     283          2.81981
    149         60.77400   0.0062   0.0200     301         0.976552
# Conjugate gradients optimization
#  Step   Current energy Av shift Mx shift   Funcs         Gradient
      0        675.39191   0.0000   0.0000       1          3342.27
     10        662.28497   0.0054   0.0396      21          677.725
     20        651.81439   0.0040   0.0322      41          397.298
     30        650.46802   0.0041   0.0122      61          64.8745
     40        647.35010   0.0067   0.0339      82          674.348
     50        641.83392   0.0064   0.0355     102          1186.53
     60        638.53058   0.0054   0.0253     122          322.153
     70        633.02405   0.0036   0.0204     142          144.317
     80        631.80847   0.0042   0.0272     162          112.708
     90        629.65765   0.0023   0.0133     182          222.024
    100        629.11786   0.0027   0.0110     203          32.8037
    110        625.79333   0.0054   0.0247     224          365.125
    120        620.73657   0.0021   0.0109     244          118.209
    130        619.36261   0.0077   0.0398     264          306.613
    140        618.50830   0.0024   0.0089     284          25.8199
    149        618.25275   0.0016   0.0049     301          21.9321
# Conjugate gradients optimization
#  Step   Current energy Av shift Mx shift   Funcs         Gradient
      0       3090.03589   0.0000   0.0000       1          488.031
     10       3089.30054   0.0024   0.0088      21          447.141
     20       3085.21118   0.0017   0.0072      41          1406.86
     30       3083.59326   0.0056   0.0198      61          2234.75
     40       3082.08911   0.0027   0.0113      81          730.047
     50       3069.22925   0.0064   0.0258     103          7142.27
     60       3061.38403   0.0033   0.0114     123          1502.07
     70       3055.36646   0.0020   0.0071     143          910.377
     80       3054.07104   0.0026   0.0107     163          469.827
     88       3054.07446   0.0002   0.0007     189          99.4936
# Conjugate gradients optimization
#  Step   Current energy Av shift Mx shift   Funcs         Gradient
      0       6108.14893   0.0000   0.0000       1          397.975
      3       6108.03711   0.0002   0.0008       7            342.1
# Conjugate gradients optimization
#  Step   Current energy Av shift Mx shift   Funcs         Gradient
      0       6108.00000   0.0000   0.0000       1          343.187
      2       6107.95166   0.0001   0.0003       6          188.119
# Conjugate gradients optimization
#  Step   Current energy Av shift Mx shift   Funcs         Gradient
      0       6107.98926   0.0000   0.0000       1          189.506
      1       6107.95361   0.0002   0.0009       4           526.39
# Conjugate gradients optimization
#  Step   Current energy Av shift Mx shift   Funcs         Gradient
      0       6107.91602   0.0000   0.0000       1          528.367
      2       6107.90918   0.0001   0.0007       6          119.881
# Conjugate gradients optimization
#  Step   Current energy Av shift Mx shift   Funcs         Gradient
      0       6107.94727   0.0000   0.0000       1          120.694
     10       6107.31494   0.0006   0.0017      21          828.487
# Conjugate gradients optimization
#  Step   Current energy Av shift Mx shift   Funcs         Gradient
      0       6106.72119   0.0000   0.0000       1          75.5533
      1       6106.71045   0.0001   0.0004       4          91.0887
# Conjugate gradients optimization
#  Step   Current energy Av shift Mx shift   Funcs         Gradient
      0       6106.71045   0.0000   0.0000       1          91.0887
      1       6106.70801   0.0001   0.0004       5          89.7191
# Conjugate gradients optimization
#  Step   Current energy Av shift Mx shift   Funcs         Gradient
      0       6106.70801   0.0000   0.0000       1          89.7191
      1       6106.70361   0.0001   0.0009       4          300.466
# Conjugate gradients optimization
#  Step   Current energy Av shift Mx shift   Funcs         Gradient
      0       6106.57275   0.0000   0.0000       1          300.705
      2       6106.56250   0.0000   0.0008       7          84.2968
# Conjugate gradients optimization
#  Step   Current energy Av shift Mx shift   Funcs         Gradient
      0       6106.69336   0.0000   0.0000       1          84.4161
      1       6106.68555   0.0001   0.0003       6          50.0595
# Conjugate gradients optimization
#  Step   Current energy Av shift Mx shift   Funcs         Gradient
      0       6106.68555   0.0000   0.0000       1          50.0595
      1       6106.68555   0.0000   0.0001      47          37.0629
# Conjugate gradients optimization
#  Step   Current energy Av shift Mx shift   Funcs         Gradient
      0       6106.68555   0.0000   0.0000       1          37.0629
     10       6082.44434   0.0064   0.0176      22          10111.4
     20       6061.12988   0.0012   0.0039      42          5189.99
     30       6058.80762   0.0017   0.0081      62           1411.5
     40       6057.58398   0.0019   0.0064      82          916.849
     44       6057.40674   0.0001   0.0003      90          84.1501
# Conjugate gradients optimization
#  Step   Current energy Av shift Mx shift   Funcs         Gradient
      0       6057.36035   0.0000   0.0000       1          100.776
     10       6056.87549   0.0010   0.0048      21            935.2
     20       6056.55225   0.0004   0.0012      41          265.068
     21       6056.53418   0.0002   0.0006      43          105.259
# Conjugate gradients optimization
#  Step   Current energy Av shift Mx shift   Funcs         Gradient
      0       6056.84766   0.0000   0.0000       1          118.494
      1       6056.83350   0.0002   0.0008       3          296.072
# Conjugate gradients optimization
#  Step   Current energy Av shift Mx shift   Funcs         Gradient
      0       6056.83350   0.0000   0.0000       1          296.072
      1       6056.81836   0.0001   0.0008       4          101.001
# Conjugate gradients optimization
#  Step   Current energy Av shift Mx shift   Funcs         Gradient
      0       6056.81836   0.0000   0.0000       1          101.001
      1       6056.81787   0.0001   0.0006       4           140.11
# Conjugate gradients optimization
#  Step   Current energy Av shift Mx shift   Funcs         Gradient
      0       6056.81787   0.0000   0.0000       1           140.11
      1       6056.81641   0.0001   0.0007       4          174.529
# Conjugate gradients optimization
#  Step   Current energy Av shift Mx shift   Funcs         Gradient
      0       6056.81641   0.0000   0.0000       1          174.529
      1       6056.80859   0.0001   0.0006       5          103.649
# Conjugate gradients optimization
#  Step   Current energy Av shift Mx shift   Funcs         Gradient
      0       6056.80859   0.0000   0.0000       1          103.649
      1       6056.80273   0.0001   0.0005       5          46.3182
# Conjugate gradients optimization
#  Step   Current energy Av shift Mx shift   Funcs         Gradient
      0   42753248.00000   0.0000   0.0000       1      6.00924e+17
     10       8774.45605   0.0626   0.2898      21      9.27263e+06
     20       5791.94775   0.0260   0.0782      41           568006
     30       5359.05078   0.0159   0.0468      61           271428
     40       5009.24707   0.0135   0.0486      81           325077
     50       4802.12891   0.0111   0.0358     101           119957
     60       4692.59570   0.0127   0.0654     121          97350.2
     70       4633.04053   0.0037   0.0126     141          13735.6
     80       4582.06787   0.0077   0.0386     161          36975.1
     90       4518.84619   0.0050   0.0351     181          25295.5
    100       4472.92871   0.0027   0.0179     201          33815.6
    110       4431.72949   0.0065   0.0384     221          29396.9
    120       4400.03711   0.0029   0.0111     241          11490.4
    130       4363.73975   0.0038   0.0258     261          39227.7
    140       4355.31592   0.0028   0.0089     281          2601.27
    145       4355.38525   0.0014   0.0052     301          5729.54
# Conjugate gradients optimization
#  Step   Current energy Av shift Mx shift   Funcs         Gradient
      0       6053.41992   0.0000   0.0000       1      8.42982e+06
     10       4946.24902   0.0135   0.0607      21           284261
     20       4759.73242   0.0078   0.0392      41           137536
     30       4676.08594   0.0198   0.1419      61           193951
     40       4532.89453   0.0067   0.0260      81          61863.4
     50       4449.49072   0.0036   0.0107     102          57226.2
     60       4428.76953   0.0123   0.0455     122          93902.2
     70       4416.59521   0.0014   0.0042     158           226334
     80       4400.57715   0.0043   0.0179     178          18779.1
     90       4386.43604   0.0106   0.0519     199           109092
    100       4334.69434   0.0017   0.0122     223           313794
    110       4276.38477   0.0005   0.0031     243           303070
    120       4255.24365   0.0009   0.0037     264          16077.5
    130       4247.96436   0.0019   0.0112     286            81145
    138       4243.98730   0.0003   0.0014     301          52250.4
# Conjugate gradients optimization
#  Step   Current energy Av shift Mx shift   Funcs         Gradient
      0       5954.44287   0.0000   0.0000       1       5.2582e+06
     10       4872.51514   0.0309   0.1084      21        1.165e+06
     20       4034.02783   0.0108   0.0424      41           262989
     30       3773.67676   0.0155   0.0718      61           242748
     40       3546.50122   0.0288   0.1132      81           471787
     50       3365.54810   0.0118   0.0274     101          55396.8
     60       3240.25732   0.0066   0.0195     121            38743
     70       3157.16846   0.0055   0.0313     142          46197.8
     80       3078.25635   0.0108   0.0417     162           115435
     90       3005.06421   0.0050   0.0206     182          48194.7
    100       2956.77417   0.0035   0.0125     203          29071.7
    110       2934.15796   0.0069   0.0226     223          15108.6
    120       2914.66846   0.0069   0.0174     243          15119.6
    130       2902.00000   0.0028   0.0096     276          4486.35
    140       2892.50903   0.0012   0.0043     296          4859.74
    143       2891.67969   0.0014   0.0034     301          3041.62
# Conjugate gradients optimization
#  Step   Current energy Av shift Mx shift   Funcs         Gradient
      0       3202.75146   0.0000   0.0000       1           221444
     10       3122.62964   0.0051   0.0376      21          54464.9
     20       2994.87256   0.0063   0.0297      41          46035.8
     30       2912.49658   0.0057   0.0513      69          45649.9
     40       2869.78052   0.0039   0.0249      94          19379.3
     50       2810.56055   0.0045   0.0175     114          21653.1
     52       2808.54370   0.0088   0.0321     301          45391.6
# Molecular dynamics simulation at 150.00 K
#  Step   Current energy Av shift Mx shift   Kinetic energy    Kinetic temp.
      0       2808.27173   0.0000   0.0000         58.72286        158.98114
     10       3070.06836   0.1047   0.4252       1757.55994       4758.26416
     20       3214.52710   0.1587   0.6755       3838.03638      10390.76367
     30       2373.69775   0.1112   0.4331       1840.25159       4982.13623
     40       2323.25366   0.1266   0.4099       2284.81201       6185.70020
     50       1786.89905   0.0980   0.4194       1572.51013       4257.27637
     60       2039.78162   0.1087   0.5137       2103.30933       5694.31592
     70       1976.56641   0.0921   0.4671       1519.44543       4113.61377
     80       2285.45166   0.0943   0.3337       1452.90125       3933.45776
     90       2200.18286   0.0887   0.4823       1575.86218       4266.35156
    100       2277.20898   0.0919   0.3998       1702.73425       4609.83398
    110       1377.73682   0.0745   0.3929       1083.09705       2932.28223
    120       1323.93262   0.0779   0.5055       1282.28223       3471.53882
    130        846.12689   0.0588   0.2352        613.59900       1661.20422
    140        928.36615   0.0700   0.3941       1110.31726       3005.97583
    150        325.36591   0.0546   0.2732        561.21429       1519.38257
    160        787.33472   0.0531   0.3139        504.92578       1366.99194
    170        647.53796   0.0503   0.3125        552.55035       1495.92651
    180       1125.65479   0.0565   0.4839        868.47919       2351.24463
    190       1361.64990   0.0598   0.5210       1325.99011       3589.86963
    200       1084.00049   0.0607   0.5860       1370.27271       3709.75659
# Molecular dynamics simulation at 250.00 K
#  Step   Current energy Av shift Mx shift   Kinetic energy    Kinetic temp.
      0       1084.00049   0.0000   0.0000         55.40549        149.99997
     10        845.60461   0.0517   0.4789        783.13397       2120.18848
     20       1160.42163   0.0497   0.4921        656.05145       1776.13635
     30        705.17267   0.0559   0.4424        934.39410       2529.69702
     40        817.07483   0.0534   0.4182        922.43579       2497.32202
     50        665.10510   0.0485   0.4724        743.60181       2013.16248
     60       1443.71362   0.0531   0.4885        926.60785       2508.61719
     70        716.92834   0.0535   0.5894       1284.52893       3477.62134
     80       1050.61646   0.0538   0.3933        959.02942       2596.39233
     90       1058.97546   0.0502   0.4595       1112.07483       3010.73413
    100        686.85486   0.0539   0.4074       1014.02698       2745.28809
    110        507.33789   0.0474   0.4446        876.69672       2373.49194
    120       1006.04822   0.0467   0.4118        736.99835       1995.28491
    130        641.09247   0.0482   0.5552        994.49854       2692.41846
    140        625.72394   0.0495   0.5484       1115.82910       3020.89819
    150        478.45712   0.0451   0.5483        912.60492       2470.70679
    160        795.98938   0.0474   0.4022        875.62671       2370.59521
    170        494.90109   0.0531   0.5195       1307.40063       3539.54224
    180       1737.91772   0.0527   0.4744       1017.55035       2754.82690
    190       1009.32227   0.0457   0.4177        634.41205       1717.55176
    200        414.68127   0.0483   0.4020        745.27301       2017.68701
# Molecular dynamics simulation at 400.00 K
#  Step   Current energy Av shift Mx shift   Kinetic energy    Kinetic temp.
      0        414.68127   0.0000   0.0000         92.34249        249.99998
     10        141.94275   0.0406   0.2892        449.11511       1215.89502
     20        214.89026   0.0449   0.5348        849.08002       2298.72510
     30        232.38763   0.0391   0.3597        514.95172       1394.13525
     40        414.10648   0.0411   0.3075        480.98044       1302.16443
     50        295.06882   0.0451   0.3857        744.60510       2015.87878
     60        286.45148   0.0505   0.5828       1129.17957       3057.04199
     70        404.81754   0.0428   0.5327        958.76257       2595.66992
     80        346.48969   0.0464   0.6094       1065.96143       2885.89087
     90        466.22519   0.0425   0.4208        831.28064       2250.53662
    100        560.23022   0.0436   0.4817        825.39783       2234.60986
    110        613.16187   0.0439   0.4452        828.90338       2244.10059
    120        281.81894   0.0447   0.4078        850.61566       2302.88257
    130         19.94807   0.0392   0.3902        607.01691       1643.38452
    140        799.76294   0.0370   0.2815        404.91730       1096.23767
    150       1054.47705   0.0397   0.3936        596.54248       1615.02698
    160        619.58020   0.0475   0.5183       1063.13477       2878.23804
    170        238.70563   0.0381   0.3860        559.84772       1515.68274
    180        645.11395   0.0381   0.3570        532.38062       1441.32068
    190        239.60004   0.0487   0.5340       1215.60779       3291.03027
    200        367.73132   0.0354   0.2817        325.60550        881.51587
# Molecular dynamics simulation at 700.00 K
#  Step   Current energy Av shift Mx shift   Kinetic energy    Kinetic temp.
      0        367.73132   0.0000   0.0000        147.74805        400.00015
     10        220.02664   0.0394   0.3433        508.04297       1375.43115
     20        299.72461   0.0458   0.6755       1232.39771       3336.48584
     30        -54.85231   0.0378   0.3216        535.20050       1448.95508
     40       1620.76685   0.0503   0.5850       1287.19128       3484.82910
     50        765.49683   0.0517   0.5973       1394.87366       3776.35889
     60        406.90833   0.0543   0.5703       1353.58679       3664.58252
     70        396.36536   0.0421   0.4168        760.50830       2058.93359
     80         89.72382   0.0427   0.4136        758.49554       2053.48462
     90        -33.68619   0.0376   0.2775        410.55420       1111.49854
    100        192.89697   0.0373   0.3719        437.01065       1183.12439
    110         73.68127   0.0399   0.3404        479.64288       1298.54321
    120        239.76480   0.0419   0.3636        587.41882       1590.32642
    130        618.05481   0.0434   0.3114        565.26666       1530.35352
    140        814.09650   0.0476   0.4279        838.58350       2270.30762
    150        968.84869   0.0534   0.6164       1571.06396       4253.36133
    160       1305.58301   0.0487   0.4939       1004.33862       2719.05859
    170        682.95929   0.0494   0.5200        962.37689       2605.45508
    180        547.38440   0.0614   0.5672       1691.46423       4579.32227
    190        315.07474   0.0484   0.3580        659.46631       1785.38147
    200        702.10583   0.0645   0.5605       1522.84814       4122.82568
# Molecular dynamics simulation at 1000.00 K
#  Step   Current energy Av shift Mx shift   Kinetic energy    Kinetic temp.
      0        702.10583   0.0000   0.0000        258.55902        700.00006
     10        350.25525   0.0492   0.3282        654.63391       1772.29858
     20        623.06580   0.0525   0.3624        748.19232       2025.59045
     30        218.38306   0.0535   0.3212        721.59631       1953.58679
     40        409.47751   0.0563   0.2599        730.59863       1977.95886
     50        160.54962   0.0530   0.2706        632.53839       1712.47913
     60        253.08487   0.0495   0.2446        515.71191       1396.19336
     70        123.99142   0.0496   0.1877        479.45477       1298.03394
     80        218.43143   0.0549   0.2317        576.18115       1559.90247
     90         90.04651   0.0474   0.1936        406.38742       1100.21777
    100         89.31331   0.0513   0.2485        530.18622       1435.37976
    110         95.05167   0.0438   0.1468        335.79861        909.11182
    120        124.68240   0.0466   0.2057        398.78171       1079.62671
    130        141.85336   0.0534   0.2681        547.15546       1481.32080
    140        209.87317   0.0521   0.3007        519.96399       1407.70508
    150        148.62482   0.0501   0.2340        494.78549       1339.53894
    160        321.28394   0.0578   0.4204        853.49878       2310.68799
    170        253.65912   0.0510   0.3168        597.99835       1618.96851
    180        473.33771   0.0509   0.3149        638.86188       1729.59875
    190        286.01041   0.0509   0.2976        586.72864       1588.45776
    200        425.52261   0.0586   0.4051        931.85846       2522.83203
# Molecular dynamics simulation at 1000.00 K
#  Step   Current energy Av shift Mx shift   Kinetic energy    Kinetic temp.
      0        425.52261   0.0000   0.0000        369.37006       1000.00018
     10        438.82880   0.0486   0.2897        607.10486       1643.62256
     20        249.52020   0.0576   0.4463       1001.21173       2710.59302
     30        495.82141   0.0584   0.4374        902.77301       2444.08862
     40        564.27667   0.0569   0.2953        696.94989       1886.86121
     50        420.45450   0.0594   0.3738        825.12054       2233.85913
     60        466.82330   0.0622   0.3668        997.84784       2701.48608
     70       1061.44849   0.0641   0.4859       1039.15576       2813.31934
     80       1265.75989   0.0699   0.4156       1213.60681       3285.61304
     90       1661.19580   0.0745   0.5250       1437.47827       3891.70288
    100       1878.66199   0.0821   0.5314       1766.64319       4782.85547
    110        886.26929   0.0835   0.5347       1866.34509       5052.77930
    120       1409.12500   0.0833   0.5549       1621.15747       4388.97998
    130       1847.59302   0.0821   0.5050       1481.62854       4011.23169
    140       1455.47803   0.0892   0.4260       1681.68835       4552.85596
    150       1957.16357   0.0963   0.4379       1969.68469       5332.55225
    160       1969.93604   0.0968   0.5445       2031.58875       5500.14551
    170       1952.54639   0.0923   0.4417       1814.50781       4912.43994
    180       1659.15381   0.0997   0.4820       2046.49292       5540.49609
    190       2032.07166   0.1009   0.5212       2183.61011       5911.71533
    200       2372.17407   0.1130   0.4978       2739.78955       7417.46680
    210       1307.21851   0.0904   0.5572       1913.99500       5181.78271
    220       1021.77600   0.0917   0.4243       1649.40881       4465.46533
    230       1191.47498   0.0869   0.4468       1491.46570       4037.86377
    240       1157.12366   0.0844   0.4469       1368.61047       3705.25635
    250       1295.47742   0.0912   0.3249       1431.00684       3874.18286
    260       1119.40137   0.0951   0.4209       1606.03186       4348.03027
    270       1826.03052   0.0963   0.3774       1565.15942       4237.37598
    280       2475.69971   0.1079   0.4755       2187.43066       5922.05859
    290       2379.95557   0.1119   0.6267       2599.52881       7037.73682
    300       1859.95044   0.1236   0.5877       2907.92188       7872.65332
    310       2760.44312   0.1288   0.6625       3495.33496       9462.96387
    320       2904.12744   0.1314   0.6755       3562.43042       9644.61230
    330       2876.08105   0.1422   0.6451       3917.26733      10605.26758
    340       3068.88867   0.1399   0.5586       3654.50806       9893.89551
    350       3240.59717   0.1423   0.5139       3773.55615      10216.19629
    360       3498.17139   0.1500   0.4213       3910.05859      10585.75098
    370       3733.75195   0.1567   0.5502       4408.13184      11934.19043
    380       3652.93384   0.1631   0.6425       4734.07715      12816.62695
    390       4037.18896   0.1532   0.5047       3945.35352      10681.30469
    400       4208.60156   0.1807   0.6755       5869.77588      15891.31836
    410       3625.30957   0.1489   0.5971       4473.12646      12110.15137
    420       3827.68237   0.1501   0.5298       4335.26025      11736.90430
    430       3596.47485   0.1480   0.4176       3761.51562      10183.59863
    440       3263.40625   0.1537   0.4854       4041.39868      10941.32910
    450       3916.60571   0.1522   0.4946       3953.82788      10704.24805
    460       3723.98047   0.1474   0.4694       3885.06323      10518.08008
    470       3403.81299   0.1591   0.4982       4374.40381      11842.87891
    480       3566.01245   0.1645   0.5565       4646.51904      12579.57910
    490       4882.51465   0.1568   0.5248       4341.74463      11754.45996
    500       4787.04102   0.1698   0.5140       4911.81641      13297.82227
    510       4437.69434   0.1622   0.5849       4558.55029      12341.42090
    520       5009.89209   0.1709   0.5561       4974.36035      13467.14844
    530       5266.30322   0.1647   0.5136       4339.35449      11747.98926
    540       4974.62744   0.1607   0.4742       4402.64209      11919.32812
    550       4428.19824   0.1821   0.5064       5451.52197      14758.97363
    560       4879.83789   0.1842   0.5941       5588.77002      15130.54688
    570       4448.70703   0.1785   0.4384       5261.63037      14244.87793
    580       4429.22559   0.1974   0.4792       6150.95215      16652.55078
    590       5330.26709   0.1832   0.4630       5238.65234      14182.66895
    600       5418.30566   0.1825   0.4526       5266.33350      14257.61133
# Molecular dynamics simulation at 800.00 K
#  Step   Current energy Av shift Mx shift   Kinetic energy    Kinetic temp.
      0       5418.30566   0.0000   0.0000        369.36993        999.99988
     10       2628.95825   0.1519   0.4554       3761.63110      10183.91113
     20       2817.29834   0.1475   0.4009       3533.64575       9566.68359
     30       4368.74316   0.1410   0.4699       3123.51245       8456.32422
     40       4893.98340   0.1690   0.6740       5064.31055      13710.67188
     50       5027.63184   0.1698   0.5067       4477.82812      12122.88086
     60       4726.32959   0.1801   0.5902       5522.76074      14951.83984
     70       4825.27344   0.1864   0.5558       5633.70557      15252.20215
     80       6096.19238   0.1928   0.5515       5947.09375      16100.64160
     90       6110.22803   0.1909   0.6280       6266.05176      16964.16016
    100       5758.88770   0.1843   0.5606       5313.42578      14385.10449
    110       5831.50928   0.2011   0.5992       6363.67725      17228.46289
    120       5462.49902   0.1849   0.5550       5253.66113      14223.30273
    130       5342.72852   0.2190   0.6755       7464.45508      20208.61328
    140       5628.45020   0.2069   0.6755       6794.89990      18395.91797
    150       6101.34570   0.2113   0.6755       6947.55225      18809.19531
    160       6133.20898   0.1925   0.5592       5747.43018      15560.08984
    170       6326.05957   0.2156   0.5500       6780.09375      18355.83398
    180       5300.02490   0.2090   0.5204       6616.81201      17913.77930
    190       5537.74072   0.2133   0.5052       6625.91943      17938.43555
    200       5695.33350   0.2247   0.6215       7444.26270      20153.94531
    210       3615.41187   0.1601   0.4194       3738.79883      10122.09668
    220       3692.19092   0.1516   0.4084       3409.70850       9231.14648
    230       3341.50000   0.1725   0.6467       4467.68848      12095.42871
    240       3887.95068   0.1726   0.5385       4560.31689      12346.20312
    250       4533.42236   0.1760   0.4668       4541.37109      12294.91113
    260       4377.84961   0.1831   0.5531       5081.66943      13757.66797
    270       4494.83789   0.1946   0.5233       5764.98047      15607.60449
    280       5080.79883   0.1931   0.4031       5226.63965      14150.14746
    290       5059.97314   0.1942   0.5979       5593.57227      15143.54883
    300       5159.91650   0.1928   0.5311       5502.29883      14896.44238
    310       4899.33887   0.2059   0.5856       6434.63623      17420.57227
    320       6342.47217   0.1942   0.5434       5053.60400      13681.68555
    330       4490.48877   0.2053   0.4566       6059.55322      16405.10547
    340       4713.68359   0.2099   0.5124       5993.04004      16225.03223
    350       7232.25146   0.2165   0.5405       6542.80615      17713.42188
    360       6154.55273   0.2078   0.4605       5910.38037      16001.24707
    370       5599.71436   0.2309   0.6755       7603.06006      20583.85938
    380       7262.23145   0.2267   0.6755       7248.93848      19625.14258
    390       6696.21436   0.2249   0.5262       7083.08057      19176.11328
    400       7138.00635   0.2312   0.5991       7489.65771      20276.84375
    410       4148.25977   0.1847   0.4501       4707.88135      12745.70605
    420       5749.38330   0.1743   0.4881       4529.15674      12261.84277
    430       4894.92480   0.1842   0.4688       4843.71094      13113.43945
    440       5122.02148   0.2007   0.4933       5488.55420      14859.23145
    450       5297.81885   0.2013   0.4637       5560.65674      15054.43555
    460       5898.37207   0.2212   0.6755       6998.78613      18947.90234
    470       5665.02051   0.1964   0.5121       5502.24170      14896.28809
    480       4958.59229   0.2026   0.4499       5591.37402      15137.59766
    490       5145.34570   0.2252   0.6405       7092.79443      19202.41211
    500       5710.51221   0.2133   0.5107       6174.69531      16716.83008
    510       5823.73438   0.2167   0.5423       6378.43555      17268.41797
    520       6073.57568   0.2261   0.5158       6879.11035      18623.90234
    530       6741.99658   0.2332   0.5462       7699.54932      20845.08594