# Conjugate gradients optimization
#  Step   Current energy Av shift Mx shift   Funcs         Gradient
      0      11707.33496   0.0000   0.0000       1           607550
     10        144.07500   0.0662   0.1562      21          232.546
     20        124.82246   0.0315   0.1298      41          60.0097
     30        119.36449   0.0154   0.0509      61          11.7682
     40        117.43439   0.0158   0.0754      81          9.81615
     50        115.74250   0.0084   0.0361     101          7.17794
     60        115.23900   0.0090   0.0359     121           2.8458
     70        114.75952   0.0151   0.0717     141          12.0309
     80        114.29789   0.0099   0.0445     162          11.4523
     90        113.79073   0.0042   0.0257     182             3.01
    100        113.54340   0.0043   0.0225     202          1.32286
    110        113.32012   0.0075   0.0251     223          2.97101
    120        113.04448   0.0156   0.0538     243          3.97122
    130        112.32758   0.0115   0.0391     263          5.49393
    140        111.45865   0.0038   0.0175     284          2.23563
    148        110.98811   0.0027   0.0131     301          1.22362
# Conjugate gradients optimization
#  Step   Current energy Av shift Mx shift   Funcs         Gradient
      0       1172.03369   0.0000   0.0000       1          4076.23
     10       1156.81860   0.0047   0.0166      21          155.057
     20       1151.90576   0.0149   0.0557      41          1444.76
     30       1135.52380   0.0061   0.0256      61          447.626
     40       1132.33777   0.0075   0.0325      81          321.847
     50       1127.08093   0.0084   0.0369     101          682.015
     60       1121.60559   0.0044   0.0146     121          131.855
     70       1120.72253   0.0022   0.0062     154          44.9336
     80       1119.82068   0.0058   0.0153     174          149.453
     90       1118.61743   0.0165   0.0526     194          216.352
    100       1116.53528   0.0024   0.0090     215          222.631
    110       1113.81836   0.0024   0.0157     235           129.94
    120       1110.70618   0.0043   0.0279     255          294.538
    130       1107.37964   0.0033   0.0208     275          194.834
    140       1105.67029   0.0026   0.0097     295          63.2086
    143       1105.28906   0.0051   0.0275     301          241.792
# Conjugate gradients optimization
#  Step   Current energy Av shift Mx shift   Funcs         Gradient
      0       5527.15674   0.0000   0.0000       1          6007.25
     10       5516.29980   0.0045   0.0255      22          8376.28
     20       5504.16162   0.0011   0.0054      42          1751.87
     30       5498.50635   0.0068   0.0263      62           6716.2
     40       5458.61523   0.0024   0.0102      83          3019.57
     50       5455.01465   0.0016   0.0110     103          1140.09
     60       5453.11816   0.0004   0.0010     124          134.031
     70       5451.06689   0.0005   0.0040     144          486.926
     80       5436.49316   0.0048   0.0298     165          6127.76
     90       5432.05225   0.0044   0.0175     185          1687.51
    100       5419.33789   0.0040   0.0230     206          4684.24
    110       5407.40918   0.0030   0.0105     227          1976.84
    120       5393.53369   0.0018   0.0097     247          754.058
    130       5391.30713   0.0042   0.0095     268          1121.84
    140       5384.78418   0.0213   0.0626     288            15883
    147       5370.38086   0.0052   0.0316     301          7071.14
# Conjugate gradients optimization
#  Step   Current energy Av shift Mx shift   Funcs         Gradient
      0      10741.49219   0.0000   0.0000       1          30322.4
     10      10680.04199   0.0057   0.0336      21           110195
     20      10588.32812   0.0030   0.0128      41          21654.3
     30      10563.17969   0.0063   0.0383      61          18622.9
     40      10452.85156   0.0148   0.0627      82           105290
     50      10370.27344   0.0050   0.0333     102          65811.6
     60      10324.79297   0.0043   0.0252     122          34313.5
     70      10295.46680   0.0022   0.0184     143           7545.2
     80      10275.59180   0.0025   0.0094     164          8599.91
     90      10232.56348   0.0055   0.0463     186           183539
    100      10136.49219   0.0040   0.0161     207          20901.3
    110      10124.89160   0.0021   0.0078     228          3798.75
    120      10116.08984   0.0055   0.0176     248          8441.81
    130      10106.55762   0.0034   0.0100     268          4600.42
    140      10102.58887   0.0037   0.0119     288          2598.52
    147      10100.81641   0.0092   0.0282     301          2488.84
# Conjugate gradients optimization
#  Step   Current energy Av shift Mx shift   Funcs         Gradient
      0      10100.36328   0.0000   0.0000       1          2491.69
      8      10099.38867   0.0002   0.0010      17          212.889
# Conjugate gradients optimization
#  Step   Current energy Av shift Mx shift   Funcs         Gradient
      0      10099.38867   0.0000   0.0000       1          212.889
      2      10099.33301   0.0002   0.0006       5          232.123
# Conjugate gradients optimization
#  Step   Current energy Av shift Mx shift   Funcs         Gradient
      0      10099.33301   0.0000   0.0000       1          232.123
      1      10099.30762   0.0002   0.0009       4          395.679
# Conjugate gradients optimization
#  Step   Current energy Av shift Mx shift   Funcs         Gradient
      0      10099.30762   0.0000   0.0000       1          395.679
      2      10099.27734   0.0001   0.0002       6          133.544
# Conjugate gradients optimization
#  Step   Current energy Av shift Mx shift   Funcs         Gradient
      0      10099.27734   0.0000   0.0000       1          133.544
      3      10099.18750   0.0001   0.0007       7          124.093
# Conjugate gradients optimization
#  Step   Current energy Av shift Mx shift   Funcs         Gradient
      0      10099.18750   0.0000   0.0000       1          124.093
      1      10099.17480   0.0001   0.0004       5          130.265
# Conjugate gradients optimization
#  Step   Current energy Av shift Mx shift   Funcs         Gradient
      0      10099.17480   0.0000   0.0000       1          130.265
      2      10099.11914   0.0002   0.0008       5          98.4281
# Conjugate gradients optimization
#  Step   Current energy Av shift Mx shift   Funcs         Gradient
      0      10099.11914   0.0000   0.0000       1          98.4281
      4      10097.56250   0.0002   0.0006       9          179.521
# Conjugate gradients optimization
#  Step   Current energy Av shift Mx shift   Funcs         Gradient
      0      10097.40137   0.0000   0.0000       1          205.565
     10      10096.37793   0.0020   0.0062      21          1065.94
     14      10096.18555   0.0003   0.0009      30          112.892
# Conjugate gradients optimization
#  Step   Current energy Av shift Mx shift   Funcs         Gradient
      0      10096.38281   0.0000   0.0000       1          122.624
      1      10096.38184   0.0003   0.0010       3          531.288
# Conjugate gradients optimization
#  Step   Current energy Av shift Mx shift   Funcs         Gradient
      0      10096.38184   0.0000   0.0000       1          531.288
      2      10096.33984   0.0001   0.0006       6          68.1386
# Conjugate gradients optimization
#  Step   Current energy Av shift Mx shift   Funcs         Gradient
      0      10096.33984   0.0000   0.0000       1          68.1386
     10      10091.27539   0.0104   0.0232      21          21913.1
     20      10078.95508   0.0054   0.0159      41          4557.44
     30      10077.35840   0.0024   0.0189      74          2024.89
     40      10075.11816   0.0019   0.0221      95           1488.8
     50      10074.12988   0.0002   0.0014     126          243.822
     51      10074.09766   0.0002   0.0006     128          238.436
# Conjugate gradients optimization
#  Step   Current energy Av shift Mx shift   Funcs         Gradient
      0      10074.04785   0.0000   0.0000       1          242.835
     10      10073.17969   0.0007   0.0026      21          331.641
     14      10072.80273   0.0002   0.0010      29          125.409
# Conjugate gradients optimization
#  Step   Current energy Av shift Mx shift   Funcs         Gradient
      0      10072.78711   0.0000   0.0000       1          131.077
      2      10072.74609   0.0001   0.0005       5          160.935
# Conjugate gradients optimization
#  Step   Current energy Av shift Mx shift   Funcs         Gradient
      0      10072.74609   0.0000   0.0000       1          160.935
      1      10072.72656   0.0001   0.0007       4          135.476
# Conjugate gradients optimization
#  Step   Current energy Av shift Mx shift   Funcs         Gradient
      0      10072.72656   0.0000   0.0000       1          135.476
      1      10072.72363   0.0001   0.0008       4          187.277
# Conjugate gradients optimization
#  Step   Current energy Av shift Mx shift   Funcs         Gradient
      0      10072.72363   0.0000   0.0000       1          187.277
      2      10072.70605   0.0001   0.0008       6          77.0845
# Conjugate gradients optimization
#  Step   Current energy Av shift Mx shift   Funcs         Gradient
      0      10072.70605   0.0000   0.0000       1          77.0845
      1      10072.70020   0.0001   0.0004       5          62.2765
# Conjugate gradients optimization
#  Step   Current energy Av shift Mx shift   Funcs         Gradient
      0   75591896.00000   0.0000   0.0000       1      1.05286e+18
     10      25732.24219   0.0547   0.3347      23      5.16619e+08
     20      10994.78613   0.0427   0.1008      43      2.07898e+06
     30       9238.06543   0.0393   0.1621      63      1.03708e+06
     40       8347.14551   0.0167   0.0548      83           379683
     50       7937.64453   0.0210   0.1182     103           330578
     60       7623.24365   0.0065   0.0411     123           120554
     70       7480.88086   0.0106   0.0495     143           155602
     80       7368.06494   0.0033   0.0277     164          78523.8
     90       7302.31592   0.0092   0.0427     184          34315.3
    100       7245.31787   0.0056   0.0316     204          22829.5
    110       7203.26416   0.0080   0.0356     224          86392.9
    120       7084.29541   0.0063   0.0329     244           111788
    130       6971.37305   0.0125   0.0651     264           171740
    140       6921.69775   0.0066   0.0219     284          21226.6
    149       6879.19580   0.0032   0.0163     301          19101.4
# Conjugate gradients optimization
#  Step   Current energy Av shift Mx shift   Funcs         Gradient
      0       8691.30859   0.0000   0.0000       1      1.05226e+07
     10       7216.06299   0.0239   0.0944      21           422340
     20       6904.01367   0.0101   0.0497      41           122270
     30       6755.89502   0.0115   0.0533      62           218006
     40       6404.76660   0.0114   0.0417      82           155939
     50       6289.37256   0.0062   0.0220     102          23407.5
     60       6205.48145   0.0052   0.0249     123          73254.6
     70       5977.43018   0.0076   0.0356     143           135227
     80       5867.95898   0.0072   0.0239     163          44835.6
     90       5796.10498   0.0213   0.0947     185           234393
    100       5727.74902   0.0051   0.0178     205          22038.3
    110       5690.25879   0.0049   0.0152     225          9206.65
    120       5672.71680   0.0246   0.0705     247          40403.7
    130       5636.38916   0.0087   0.0387     267            12292
    140       5606.74609   0.0059   0.0244     287          17583.8
    147       5597.68311   0.0056   0.0166     301          5634.21
# Conjugate gradients optimization
#  Step   Current energy Av shift Mx shift   Funcs         Gradient
      0       6869.36963   0.0000   0.0000       1      3.29642e+06
     10       6171.46436   0.0072   0.0386      21           397296
     20       6021.35498   0.0099   0.0422      41          63663.2
     30       5878.92236   0.0159   0.0886      61           249698
     40       5676.13135   0.0071   0.0221      81            57432
     50       5570.53955   0.0131   0.0455     102          71203.6
     60       5358.11182   0.0140   0.0540     122           165985
     70       5231.73145   0.0179   0.0700     142            98629
     80       5133.84912   0.0035   0.0103     162          24213.8
     90       5024.51709   0.0110   0.0463     182           164078
    100       4895.46582   0.0149   0.0562     202          71020.5
    110       4851.35742   0.0032   0.0110     222          10271.5
    120       4826.70410   0.0100   0.0428     243          40588.2
    130       4786.25439   0.0113   0.0558     263          78874.2
    140       4746.37695   0.0038   0.0164     283          11655.6
    149       4735.27734   0.0080   0.0418     301          6129.14
# Conjugate gradients optimization
#  Step   Current energy Av shift Mx shift   Funcs         Gradient
      0       5175.96533   0.0000   0.0000       1           533840
     10       5016.63525   0.0096   0.0696      23           249041
     20       4779.01172   0.0032   0.0209      43          34702.6
     30       4702.84082   0.0107   0.0847      66           125659
     40       4621.24512   0.0039   0.0242      86          28807.7
     50       4584.63770   0.0023   0.0109     106            14768
     60       4571.19629   0.0011   0.0065     126          7388.55
     70       4563.23193   0.0054   0.0352     148           9485.2
     80       4548.51953   0.0115   0.0375     169          10747.8
     90       4537.31787   0.0040   0.0130     189           9009.1
    100       4529.23584   0.0045   0.0218     209          4001.69
    105       4526.30322   0.0018   0.0096     301          3644.12
# Molecular dynamics simulation at 150.00 K
#  Step   Current energy Av shift Mx shift   Kinetic energy    Kinetic temp.
      0       4526.45312   0.0000   0.0000         56.73345        153.59518
     10       4580.95947   0.0939   0.2750       1338.77673       3624.48706
     20       4868.09961   0.1771   0.6755       5182.64160      14031.03027
     30       3465.65137   0.1285   0.4607       2618.76709       7089.82129
     40       3321.84668   0.1524   0.5811       3426.88745       9277.65527
     50       3135.32715   0.1183   0.4807       2295.52100       6214.69287
     60       2844.59131   0.1244   0.5516       2656.17651       7191.10010
     70       2279.08301   0.0957   0.4738       1594.34204       4316.38232
     80       2054.27710   0.0948   0.3981       1585.16113       4291.52686
     90       1286.41858   0.0809   0.4386       1246.51196       3374.69751
    100       1286.35767   0.0808   0.4313       1170.36389       3168.54077
    110        901.95862   0.0671   0.2794        767.33051       2077.40356
    120       1411.19031   0.0691   0.3350        886.62067       2400.35938
    130       1398.69507   0.0630   0.3424        860.08606       2328.52173
    140       1491.62964   0.0647   0.4667        985.01758       2666.75049
    150       1798.57312   0.0637   0.5931       1110.07373       3005.31665
    160       1103.10034   0.0740   0.4348       1479.81824       4006.33057
    170       1071.14941   0.0638   0.4340       1021.56836       2765.70483
    180       1373.51245   0.0678   0.5026       1452.06604       3931.19653
    190        765.67761   0.0615   0.4009       1015.18140       2748.41333
    200       1525.43494   0.0672   0.4983       1381.32678       3739.68335
# Molecular dynamics simulation at 250.00 K
#  Step   Current energy Av shift Mx shift   Kinetic energy    Kinetic temp.
      0       1525.43494   0.0000   0.0000         55.40550        150.00000
     10       1709.57520   0.0696   0.4688       1464.10706       3963.79541
     20       1895.69751   0.0772   0.6120       2141.78979       5798.49463
     30       1461.24524   0.0633   0.4592       1068.99548       2894.10498
     40        988.23499   0.0553   0.2672        668.56244       1810.00745
     50        689.04907   0.0649   0.5039       1269.86377       3437.91821
     60        584.00684   0.0574   0.2890        689.84528       1867.62683
     70        387.31555   0.0534   0.4422        733.40948       1985.56873
     80       1419.80225   0.0564   0.5841       1084.67590       2936.55664
     90       1110.07764   0.0601   0.5369       1285.72156       3480.85010
    100       1192.72095   0.0574   0.4176        938.43164       2540.62769
    110        253.73959   0.0495   0.3390        653.68530       1769.73047
    120        582.25348   0.0508   0.5433        924.04077       2501.66724
    130         55.86539   0.0461   0.2884        531.76251       1439.64734
    140        279.14276   0.0462   0.2765        524.12921       1418.98157
    150        -78.47649   0.0412   0.2391        383.79874       1039.06311
    160        253.49777   0.0430   0.2636        432.52319       1170.97546
    170        -97.31964   0.0390   0.2187        370.26877       1002.43329
    180        150.87283   0.0410   0.3957        476.32425       1289.55859
    190        -96.52937   0.0369   0.2408        341.72391        925.15344
    200         83.56563   0.0353   0.1995        287.68677        778.85803
# Molecular dynamics simulation at 400.00 K
#  Step   Current energy Av shift Mx shift   Kinetic energy    Kinetic temp.
      0         84.20367   0.0000   0.0000         92.34249        249.99998
     10       -153.24493   0.0359   0.2878        335.97324        909.58459
     20        108.58737   0.0358   0.2171        319.36313        864.61578
     30       -181.65216   0.0316   0.2161        250.24980        677.50446
     40         25.99680   0.0327   0.1882        254.61755        689.32928
     50       -136.47137   0.0286   0.1528        178.00987        481.92838
     60        -20.12241   0.0349   0.2279        278.08182        752.85437
     70       -176.36104   0.0286   0.1815        173.36932        469.36496
     80       -157.08925   0.0318   0.2406        225.28918        609.92822
     90       -189.93921   0.0291   0.1472        144.34038        390.77451
    100       -169.71941   0.0302   0.1414        169.39406        458.60266
    110       -211.42755   0.0292   0.1623        144.02318        389.91577
    120       -183.74481   0.0299   0.1580        171.20322        463.50061
    130       -201.28598   0.0276   0.1081        122.66663        332.09689
    140       -225.59836   0.0303   0.1845        173.35229        469.31885
    150       -213.47092   0.0305   0.1606        155.02710        419.70682
    160       -190.20399   0.0291   0.1305        137.59991        372.52597
    170       -220.47784   0.0306   0.1374        143.05499        387.29459
    180       -195.40707   0.0313   0.1581        162.73795        440.58249
    190       -199.24716   0.0272   0.0949        115.99569        314.03659
    200       -219.39452   0.0303   0.1543        148.81401        402.88605
# Molecular dynamics simulation at 700.00 K
#  Step   Current energy Av shift Mx shift   Kinetic energy    Kinetic temp.
      0       -219.64197   0.0000   0.0000        147.74800        400.00003
     10       -214.54190   0.0291   0.1268        128.05362        346.68118
     20       -242.48683   0.0324   0.1377        173.34604        469.30191
     30       -178.24049   0.0335   0.1397        175.48311        475.08762
     40       -206.25012   0.0375   0.1284        211.89954        573.67828
     50       -160.71974   0.0376   0.1609        221.54776        599.79901
     60       -163.04295   0.0374   0.1247        201.35083        545.11963
     70       -153.12630   0.0426   0.0972        245.14594        663.68665
     80       -124.17301   0.0421   0.1428        264.26697        715.45331
     90        -73.68624   0.0407   0.1158        225.91689        611.62762
    100       -146.25592   0.0424   0.1322        266.69931        722.03839
    110        -95.31644   0.0419   0.1612        259.51440        702.58661
    120       -129.09193   0.0433   0.1323        248.97360        674.04938
    130        -84.17268   0.0451   0.1850        306.08966        828.68036
    140        -91.62312   0.0410   0.1162        229.15492        620.39398
    150        -98.38103   0.0453   0.1676        316.62570        857.20477
    160        -87.67342   0.0457   0.1356        296.16299        801.80579
    170        -67.27395   0.0417   0.1297        254.20518        688.21289
    180       -105.30434   0.0452   0.1587        283.76941        768.25250
    190       -101.63976   0.0417   0.1438        249.28604        674.89526
    200        -94.59900   0.0427   0.1277        252.99977        684.94946
# Molecular dynamics simulation at 1000.00 K
#  Step   Current energy Av shift Mx shift   Kinetic energy    Kinetic temp.
      0        -94.59900   0.0000   0.0000        258.55896        699.99994
     10        -75.02037   0.0429   0.1187        247.31435        669.55725
     20        -80.35432   0.0429   0.1017        251.15057        679.94312
     30        -54.91149   0.0504   0.1160        340.28607        921.26074
     40        -54.82732   0.0490   0.1403        335.63626        908.67224
     50        -44.63709   0.0517   0.1414        355.40387        962.18939
     60        -15.98692   0.0498   0.1153        337.87775        914.74066
     70         11.07335   0.0509   0.1226        342.66931        927.71295
     80         14.63971   0.0523   0.1304        363.69525        984.63672
     90         12.94199   0.0509   0.1275        348.72632        944.11115
    100         21.74052   0.0539   0.1199        385.49438       1043.65381
    110         31.67075   0.0490   0.1054        328.48776        889.31903
    120         33.04167   0.0497   0.1362        341.09091        923.43970
    130         57.12349   0.0529   0.1251        371.03955       1004.52002
    140         26.66982   0.0543   0.1265        386.57935       1046.59106
    150          7.12526   0.0547   0.1265        393.94583       1066.53455
    160         26.56149   0.0550   0.1279        405.68561       1098.31775
    170         33.74088   0.0523   0.1084        355.93228        963.61993
    180         28.43263   0.0498   0.1265        335.88779        909.35321
    190         20.50314   0.0525   0.1463        380.24133       1029.43213
    200         18.15034   0.0549   0.1671        411.70456       1114.61292
# Molecular dynamics simulation at 1000.00 K
#  Step   Current energy Av shift Mx shift   Kinetic energy    Kinetic temp.
      0         19.46045   0.0000   0.0000        369.36996        999.99994
     10         42.87741   0.0487   0.1422        316.44864        856.72540
     20         10.11737   0.0531   0.1204        375.54510       1016.71796
     30        -13.04691   0.0545   0.1449        398.74408       1079.52490
     40        -12.08487   0.0563   0.1729        427.65396       1157.79297
     50        -19.31320   0.0548   0.1365        412.35208       1116.36597
     60         -0.31866   0.0555   0.1516        409.44818       1108.50415
     70         -7.72293   0.0555   0.1254        408.47052       1105.85742
     80         48.48817   0.0538   0.1129        372.85980       1009.44806
     90         48.94319   0.0564   0.1573        426.68292       1155.16406
    100        101.07138   0.0554   0.1070        406.63458       1100.88696
    110         59.84033   0.0558   0.1393        423.80939       1147.38452
    120         90.44318   0.0552   0.1197        392.70569       1063.17700
    130          2.49501   0.0587   0.1436        471.86038       1277.47351
    140         47.81422   0.0586   0.1227        450.44333       1219.49084
    150         65.02873   0.0571   0.1459        432.24710       1170.22803
    160         85.01089   0.0579   0.1129        430.46143       1165.39368
    170         66.04033   0.0586   0.1331        463.05798       1253.64270
    180        104.51370   0.0574   0.1702        449.90247       1218.02661
    190        102.69064   0.0622   0.1401        492.38983       1333.05322
    200        131.40274   0.0591   0.1265        448.63345       1214.59094
    210         97.21262   0.0561   0.1214        412.67963       1117.25269
    220         28.54767   0.0585   0.1485        458.88293       1242.33948
    230         44.22447   0.0583   0.1228        444.70587       1203.95776
    240         84.23816   0.0599   0.1460        478.93076       1296.61523
    250         71.55573   0.0580   0.1197        440.49365       1192.55396
    260         97.47931   0.0592   0.1265        457.66727       1239.04834
    270         65.22702   0.0581   0.1282        433.47720       1173.55823
    280        114.43445   0.0579   0.1545        441.88843       1196.33008
    290        111.26099   0.0585   0.1315        455.79279       1233.97351
    300         74.90305   0.0612   0.1591        485.07681       1313.25452
    310         46.16534   0.0610   0.1374        504.20264       1365.03418
    320        144.49301   0.0598   0.1603        472.03976       1277.95923
    330         86.02803   0.0599   0.1610        464.91370       1258.66675
    340        111.41849   0.0602   0.1435        480.85025       1301.81189
    350         72.17264   0.0623   0.1267        513.23053       1389.47546
    360        169.56445   0.0571   0.1356        431.19879       1167.38989
    370         45.21146   0.0641   0.1688        540.21118       1462.52051
    380        112.00571   0.0603   0.1521        479.54214       1298.27051
    390        107.97128   0.0617   0.1501        500.42343       1354.80261
    400        104.47845   0.0615   0.1243        501.05472       1356.51172
    410         43.69075   0.0575   0.1563        446.87405       1209.82776
    420          0.45407   0.0592   0.1218        471.48703       1276.46277
    430         84.73576   0.0563   0.1553        435.68610       1179.53845
    440         84.25156   0.0568   0.1403        420.93213       1139.59485
    450         78.28769   0.0558   0.1445        426.70795       1155.23181
    460         42.05614   0.0617   0.1305        491.59891       1330.91187
    470        109.98418   0.0578   0.1446        442.42120       1197.77246
    480        101.64545   0.0572   0.1226        431.03729       1166.95264
    490         90.01500   0.0577   0.1442        440.10464       1191.50085
    500         53.27563   0.0603   0.1245        469.86151       1272.06201
    510        127.89267   0.0571   0.1247        434.13318       1175.33423
    520         80.57004   0.0579   0.1313        438.75201       1187.83887
    530         94.37523   0.0584   0.1302        442.29959       1197.44324
    540         82.18590   0.0610   0.1147        480.60074       1301.13647
    550         76.05307   0.0623   0.1471        522.62805       1414.91748
    560         72.42680   0.0621   0.1640        497.81137       1347.73096
    570         72.46599   0.0648   0.1409        542.74994       1469.39368
    580        102.14807   0.0621   0.1317        495.78894       1342.25562
    590         84.64851   0.0624   0.1288        512.59033       1387.74231
    600         96.34695   0.0596   0.1695        483.20969       1308.19971
# Molecular dynamics simulation at 800.00 K
#  Step   Current energy Av shift Mx shift   Kinetic energy    Kinetic temp.
      0         96.34695   0.0000   0.0000        369.37003       1000.00012
     10         71.82768   0.0573   0.1573        448.35745       1213.84375
     20         60.11687   0.0589   0.1229        439.27289       1189.24902
     30         61.32512   0.0602   0.1296        462.76971       1252.86230
     40         50.79500   0.0601   0.1521        485.56531       1314.57703
     50         43.06882   0.0575   0.1507        452.52899       1225.13745
     60         64.82663   0.0592   0.1246        456.00092       1234.53699
     70         86.67979   0.0573   0.1322        431.18814       1167.36108
     80        109.91516   0.0568   0.1205        425.36969       1151.60876
     90         63.77295   0.0583   0.1201        441.86688       1196.27173
    100         61.45699   0.0609   0.1417        495.41132       1341.23328
    110         58.96211   0.0622   0.1471        502.57938       1360.63940
    120         74.79253   0.0613   0.1252        486.61121       1317.40869
    130         78.39961   0.0599   0.1533        473.42673       1281.71411
    140         74.76227   0.0601   0.1355        480.69327       1301.38696
    150         99.92810   0.0617   0.1287        489.57538       1325.43359
    160         50.34996   0.0639   0.1266        524.59735       1420.24902
    170         86.25589   0.0630   0.1278        524.54944       1420.11926
    180        166.96674   0.0612   0.1406        489.64087       1325.61084
    190        117.56561   0.0618   0.1265        498.18085       1348.73132
    200        137.01657   0.0593   0.1272        472.80377       1280.02759
    210         38.83052   0.0561   0.1307        419.00601       1134.38025
    220        -17.04831   0.0587   0.1302        447.64713       1211.92065
    230          9.62680   0.0572   0.1719        443.91885       1201.82715
    240         40.14526   0.0577   0.1128        429.16016       1161.87073
    250          3.66731   0.0578   0.1296        446.01358       1207.49817
    260         18.82239   0.0590   0.1302        452.86523       1226.04773
    270         64.51672   0.0551   0.1358        394.60089       1068.30798
    280          4.31981   0.0599   0.1169        474.45923       1284.50940
    290         26.82974   0.0600   0.1220        473.54373       1282.03088