# Conjugate gradients optimization
#  Step   Current energy Av shift Mx shift   Funcs         Gradient
      0      13969.61816   0.0000   0.0000       1           707671
     10        117.24106   0.1248   0.3350      21           371.86
     20         78.25153   0.0467   0.1458      41          124.367
     30         67.20131   0.0191   0.0576      61          34.6664
     40         63.78976   0.0094   0.0278      81          15.7797
     50         62.67015   0.0205   0.0769     101          8.43485
     60         60.91837   0.0076   0.0225     121          4.41399
     70         60.24420   0.0107   0.0479     141          5.71161
     80         59.79687   0.0038   0.0158     162          1.48598
     90         59.62830   0.0028   0.0130     182         0.795323
    100         59.50159   0.0105   0.0374     202           1.4158
    110         58.95470   0.0150   0.0668     222          17.2696
    120         58.32344   0.0056   0.0151     242          1.44927
    130         58.20287   0.0075   0.0372     263         0.712425
    140         58.05284   0.0139   0.1300     283          1.37873
    149         57.76473   0.0051   0.0459     301          2.92533
# Conjugate gradients optimization
#  Step   Current energy Av shift Mx shift   Funcs         Gradient
      0        680.66174   0.0000   0.0000       1          3377.68
     10        658.27051   0.0088   0.0512      21          624.908
     20        654.53979   0.0044   0.0129      41            160.3
     30        643.06415   0.0109   0.0515      61          850.016
     40        632.95050   0.0033   0.0188      81          263.778
     50        628.05914   0.0051   0.0380     101          672.426
     60        625.42230   0.0039   0.0134     121          55.8936
     70        620.68921   0.0105   0.0510     141          1070.74
     80        618.97974   0.0039   0.0116     161          51.9217
     90        618.49146   0.0043   0.0138     181          27.0913
    100        618.33221   0.0024   0.0077     212          98.5603
    110        617.53772   0.0015   0.0123     233          120.013
    120        615.35712   0.0020   0.0173     253          23.9288
    130        615.16571   0.0021   0.0115     273          13.3214
    140        615.02179   0.0046   0.0163     293          13.7745
    144        614.89075   0.0083   0.0300     301          26.3218
# Conjugate gradients optimization
#  Step   Current energy Av shift Mx shift   Funcs         Gradient
      0       3073.36816   0.0000   0.0000       1          890.463
     10       3071.87842   0.0019   0.0094      21          378.973
     20       3071.44043   0.0008   0.0022      42          383.979
     30       3070.87109   0.0007   0.0033      62           162.47
     32       3070.82861   0.0002   0.0006      66          74.3375
# Conjugate gradients optimization
#  Step   Current energy Av shift Mx shift   Funcs         Gradient
      0       6140.50244   0.0000   0.0000       1          314.549
      1       6140.46875   0.0003   0.0007       3          263.123
# Conjugate gradients optimization
#  Step   Current energy Av shift Mx shift   Funcs         Gradient
      0       6140.69336   0.0000   0.0000       1          260.304
      1       6140.68604   0.0002   0.0006       4          168.668
# Conjugate gradients optimization
#  Step   Current energy Av shift Mx shift   Funcs         Gradient
      0       6140.46143   0.0000   0.0000       1          175.418
      1       6140.45068   0.0002   0.0006       4          196.674
# Conjugate gradients optimization
#  Step   Current energy Av shift Mx shift   Funcs         Gradient
      0       6140.67627   0.0000   0.0000       1          196.164
      1       6140.66309   0.0001   0.0007       4          198.834
# Conjugate gradients optimization
#  Step   Current energy Av shift Mx shift   Funcs         Gradient
      0       6140.66309   0.0000   0.0000       1          198.834
      1       6140.65283   0.0002   0.0008       4           248.82
# Conjugate gradients optimization
#  Step   Current energy Av shift Mx shift   Funcs         Gradient
      0       6140.65283   0.0000   0.0000       1           248.82
      1       6140.64111   0.0001   0.0009       4          229.818
# Conjugate gradients optimization
#  Step   Current energy Av shift Mx shift   Funcs         Gradient
      0       6140.64111   0.0000   0.0000       1          229.818
      2       6140.62891   0.0001   0.0007       7          65.2805
# Conjugate gradients optimization
#  Step   Current energy Av shift Mx shift   Funcs         Gradient
      0       6140.62891   0.0000   0.0000       1          65.2805
     10       6103.64160   0.0017   0.0074      31           4182.4
     20       6100.67529   0.0014   0.0045      51          796.077
     29       6100.79199   0.0002   0.0009      80          182.014
# Conjugate gradients optimization
#  Step   Current energy Av shift Mx shift   Funcs         Gradient
      0       6100.79199   0.0000   0.0000       1          182.014
     10       6099.35645   0.0005   0.0018      22          429.395
     20       6097.79883   0.0050   0.0264      43          13498.3
     30       6094.50293   0.0007   0.0029      63          751.108
# Conjugate gradients optimization
#  Step   Current energy Av shift Mx shift   Funcs         Gradient
      0       6094.15820   0.0000   0.0000       1          181.893
      2       6094.13721   0.0001   0.0010       5          57.1372
# Conjugate gradients optimization
#  Step   Current energy Av shift Mx shift   Funcs         Gradient
      0       6094.13721   0.0000   0.0000       1          57.1372
     10       6093.59668   0.0001   0.0010      21          87.1343
     11       6093.59180   0.0001   0.0005      23          70.0419
# Conjugate gradients optimization
#  Step   Current energy Av shift Mx shift   Funcs         Gradient
      0       6093.11670   0.0000   0.0000       1           76.812
      1       6093.10889   0.0002   0.0007       3          270.416
# Conjugate gradients optimization
#  Step   Current energy Av shift Mx shift   Funcs         Gradient
      0       6093.10889   0.0000   0.0000       1          270.416
      1       6093.10156   0.0001   0.0008       4          127.691
# Conjugate gradients optimization
#  Step   Current energy Av shift Mx shift   Funcs         Gradient
      0       6093.10156   0.0000   0.0000       1          127.691
      1       6093.09473   0.0001   0.0007       4            135.9
# Conjugate gradients optimization
#  Step   Current energy Av shift Mx shift   Funcs         Gradient
      0       6093.09473   0.0000   0.0000       1            135.9
      1       6093.08984   0.0001   0.0009       4           155.87
# Conjugate gradients optimization
#  Step   Current energy Av shift Mx shift   Funcs         Gradient
      0       6093.08984   0.0000   0.0000       1           155.87
      2       6093.08105   0.0000   0.0006       6          38.3032
# Conjugate gradients optimization
#  Step   Current energy Av shift Mx shift   Funcs         Gradient
      0       6093.09668   0.0000   0.0000       1          37.7851
     10       6091.03955   0.0119   0.0364      21          3645.61
     20       6081.85059   0.0069   0.0184      41          7945.79
     30       6074.48535   0.0113   0.0709      75          24542.1
     40       6063.96191   0.0020   0.0066      95          2049.96
     50       6061.62988   0.0026   0.0105     115          1365.16
     55       6062.47559   0.0002   0.0006     135          202.242
# Conjugate gradients optimization
#  Step   Current energy Av shift Mx shift   Funcs         Gradient
      0       6062.46729   0.0000   0.0000       1          202.359
      4       6062.30420   0.0001   0.0003       9          107.244
# Conjugate gradients optimization
#  Step   Current energy Av shift Mx shift   Funcs         Gradient
      0       6062.21143   0.0000   0.0000       1          116.769
      9       6061.48584   0.0002   0.0008      19           135.27
# Conjugate gradients optimization
#  Step   Current energy Av shift Mx shift   Funcs         Gradient
      0   86058088.00000   0.0000   0.0000       1      1.40774e+18
     10       9705.26758   0.0751   0.2703      21      4.84541e+06
     20       6643.57373   0.0238   0.0738      41           460778
     30       6191.16064   0.0237   0.1092      62           406168
     40       5953.22070   0.0113   0.0525      82           180964
     50       5804.96777   0.0053   0.0197     102          33983.1
     60       5771.83057   0.0048   0.0158     122            15718
     70       5717.00049   0.0100   0.0504     142          55535.7
     80       5641.44775   0.0046   0.0302     162          24270.8
     90       5613.91357   0.0032   0.0157     182          17112.3
    100       5589.59766   0.0020   0.0087     202          4356.05
    110       5585.00098   0.0044   0.0249     222          2400.16
    120       5572.35986   0.0043   0.0303     255          85296.3
    130       5553.20947   0.0022   0.0098     276          5064.71
    140       5524.78418   0.0045   0.0211     296          17047.8
    143       5519.08154   0.0047   0.0281     301          13093.3
# Conjugate gradients optimization
#  Step   Current energy Av shift Mx shift   Funcs         Gradient
      0       9633.37598   0.0000   0.0000       1      5.34608e+07
     10       6725.13525   0.0214   0.0739      21           479589
     20       6295.98193   0.0262   0.1241      41           262461
     30       6058.48828   0.0075   0.0245      61          37340.1
     40       6008.70361   0.0088   0.0297      81          16911.9
     50       5960.61523   0.0161   0.0702     101           134083
     60       5800.24609   0.0097   0.0546     121          72787.2
     70       5712.97852   0.0054   0.0419     141          50937.1
     80       5616.68652   0.0035   0.0180     161          12064.4
     90       5608.92969   0.0079   0.0375     183          5064.11
    100       5601.73535   0.0112   0.0351     205          6832.77
    110       5588.75488   0.0056   0.0184     225          6993.88
    120       5568.46875   0.0046   0.0195     246          9996.96
    130       5551.97705   0.0217   0.1723     267          51709.7
    140       5525.45557   0.0097   0.0488     288          58426.2
    147       5496.34863   0.0051   0.0152     301          10848.5
# Conjugate gradients optimization
#  Step   Current energy Av shift Mx shift   Funcs         Gradient
      0       8439.48145   0.0000   0.0000       1      1.59345e+07
     10       6759.56006   0.0217   0.1060      21           321538
     20       6137.73340   0.0217   0.0723      41           464142
     30       5606.59375   0.0315   0.1223      61           463931
     40       4887.79688   0.0270   0.1069      81           288386
     50       4525.61914   0.0104   0.0506     101          85289.2
     60       4362.23926   0.0103   0.0719     121          71154.5
     70       4151.48340   0.0169   0.1076     141          57814.6
     80       4090.16211   0.0100   0.0304     162          25151.5
     90       4041.90625   0.0017   0.0073     182          11095.9
    100       4022.52393   0.0084   0.0339     203          12209.5
    110       4004.30127   0.0029   0.0096     223          8950.04
    120       3992.60522   0.0091   0.0225     243          14068.7
    130       3977.09766   0.0062   0.0230     263          34339.8
    140       3952.53101   0.0025   0.0199     284          11682.1
    149       3942.94092   0.0020   0.0070     301          5413.51
# Conjugate gradients optimization
#  Step   Current energy Av shift Mx shift   Funcs         Gradient
      0       4477.15430   0.0000   0.0000       1           980323
     10       4363.07617   0.0028   0.0101      22            27004
     15       4361.01465   0.0002   0.0006      32          33363.4
# Molecular dynamics simulation at 150.00 K
#  Step   Current energy Av shift Mx shift   Kinetic energy    Kinetic temp.
      0       4360.93262   0.0000   0.0000         58.28088        157.78456
     10       4550.06641   0.0941   0.3417       1501.43176       4064.84497
     20       4130.28613   0.1393   0.3186       2635.97070       7136.39648
     30       3466.03760   0.0985   0.2725       1453.85022       3936.02686
     40       3766.29028   0.1211   0.3641       2098.30444       5680.76611
     50       4598.77881   0.1332   0.6755       4142.55176      11215.18262
     60       6645.19287   0.1292   0.5439       3165.27930       8569.40039
     70       3120.99414   0.1360   0.6141       4135.16553      11195.18555
     80       2948.63965   0.1238   0.5527       2907.57739       7871.72070
     90       2998.56616   0.1055   0.5174       2114.52808       5724.68848
    100       3417.46069   0.1081   0.4318       2106.74976       5703.62988
    110       2872.60254   0.1019   0.6601       2454.36694       6644.73828
    120       2342.88208   0.0997   0.4843       2165.08594       5861.56445
    130       1534.91870   0.0887   0.4299       1639.65979       4439.07178
    140       1691.49194   0.0936   0.4878       1836.96948       4973.25049
    150       1457.35193   0.0799   0.4542       1421.72974       3849.06689
    160       2343.50952   0.0857   0.5066       1859.91980       5035.38428
    170       1862.54663   0.0794   0.4912       1662.97302       4502.18799
    180       1742.15393   0.0774   0.4162       1438.64600       3894.86450
    190        986.11877   0.0667   0.3067        943.65839       2554.77832
    200       1143.82446   0.0733   0.5141       1393.92468       3773.78979
# Molecular dynamics simulation at 250.00 K
#  Step   Current energy Av shift Mx shift   Kinetic energy    Kinetic temp.
      0       1143.82446   0.0000   0.0000         55.40549        149.99997
     10        812.86084   0.0597   0.3180        779.02509       2109.06445
     20        836.99597   0.0629   0.3847        965.09619       2612.81714
     30       1015.02423   0.0634   0.4890       1055.79614       2858.37012
     40       1082.94312   0.0704   0.4353       1251.62781       3388.54761
     50        610.88373   0.0627   0.3955        996.27643       2697.23169
     60       1211.49390   0.0631   0.3961       1006.51526       2724.95142
     70       1821.24475   0.0636   0.4469       1148.59119       3109.59546
     80       1453.20325   0.0722   0.5416       1492.55823       4040.82153
     90       1183.33716   0.0662   0.5667       1292.68030       3499.68970
    100       1702.02490   0.0796   0.5881       1800.79553       4875.31641
    110       1421.88977   0.0674   0.5527       1398.79407       3786.97266
    120       1279.21265   0.0685   0.4640       1316.16760       3563.27710
    130        526.01025   0.0639   0.3429        980.10010       2653.43726
    140        825.38202   0.0617   0.3247        896.90460       2428.20117
    150       1073.39453   0.0670   0.5262       1356.78528       3673.24194
    160        970.51447   0.0605   0.3976        926.88690       2509.37256
    170        450.64203   0.0541   0.4192        723.38971       1958.44202
    180        613.68518   0.0555   0.4211        827.56622       2240.48047
    190        329.33908   0.0510   0.4020        631.68524       1710.16943
    200        737.17407   0.0570   0.4302       1029.73401       2787.81177
# Molecular dynamics simulation at 400.00 K
#  Step   Current energy Av shift Mx shift   Kinetic energy    Kinetic temp.
      0        737.17407   0.0000   0.0000         92.34251        250.00005
     10        179.31500   0.0472   0.4032        647.79346       1753.77942
     20        690.06976   0.0515   0.5722       1058.83765       2866.60449
     30        303.42520   0.0487   0.4634        875.73541       2370.88940
     40        613.68262   0.0464   0.4514        774.99963       2098.16626
     50        377.55383   0.0404   0.3141        450.72073       1220.24194
     60        754.58838   0.0466   0.5455        948.60809       2568.17871
     70        205.25531   0.0388   0.3621        561.24493       1519.46545
     80       1084.89502   0.0435   0.4694        754.03015       2041.39526
     90       1068.77893   0.0376   0.3626        542.42523       1468.51465
    100        755.49426   0.0428   0.4579        695.59619       1883.19629
    110        985.85114   0.0434   0.5626       1030.36658       2789.52441
    120        539.14819   0.0454   0.4600        908.47864       2459.53564
    130        647.88434   0.0441   0.4430        822.65289       2227.17847
    140        570.31006   0.0407   0.3799        670.61707       1815.57007
    150       1439.85010   0.0461   0.4695        986.56781       2670.94751
    160       1103.46582   0.0507   0.5478       1316.43420       3563.99878
    170        700.58887   0.0442   0.3785        756.27582       2047.47498
    180       1074.76843   0.0509   0.6755       1683.27185       4557.14307
    190        869.26971   0.0448   0.4650        986.84576       2671.69995
    200       1035.47534   0.0429   0.4351        796.09064       2155.26611
# Molecular dynamics simulation at 700.00 K
#  Step   Current energy Av shift Mx shift   Kinetic energy    Kinetic temp.
      0       1035.47534   0.0000   0.0000        147.74799        399.99997
     10       1076.44116   0.0447   0.3885        859.85510       2327.89648
     20        874.95844   0.0490   0.5800       1247.59375       3377.62622
     30        315.84000   0.0413   0.5432        916.67230       2481.71851
     40        371.53052   0.0406   0.4367        777.17804       2104.06396
     50       1079.42590   0.0457   0.6449       1163.13696       3148.97534
     60        511.32538   0.0467   0.4640       1064.64893       2882.33740
     70        456.79871   0.0336   0.2347        326.83850        884.85400
     80        264.91602   0.0398   0.4601        593.94849       1608.00415
     90        745.93213   0.0450   0.4183        897.70612       2430.37109
    100        414.33881   0.0427   0.6205       1048.41870       2838.39722
    110        985.92664   0.0377   0.4619        571.38074       1546.90625
    120       1424.50928   0.0468   0.5516       1193.24036       3230.47461
    130        373.93948   0.0475   0.5348       1253.46460       3393.52051
    140       1015.32568   0.0394   0.4864        719.38483       1947.59961
    150        481.01178   0.0402   0.4651        595.76172       1612.91321
    160        557.47253   0.0435   0.4589        725.38342       1963.83960
    170        294.19781   0.0409   0.3532        579.79651       1569.69043
    180        209.64856   0.0427   0.4793        899.11554       2434.18677
    190        -52.46114   0.0362   0.3634        503.22791       1362.39526
    200        140.96536   0.0337   0.3020        350.40594        948.65845
# Molecular dynamics simulation at 1000.00 K
#  Step   Current energy Av shift Mx shift   Kinetic energy    Kinetic temp.
      0        141.62204   0.0000   0.0000        258.55902        700.00006
     10        338.46082   0.0362   0.3192        444.70212       1203.94763
     20        420.91211   0.0387   0.3661        527.26050       1427.45898
     30        543.89917   0.0419   0.4030        654.82422       1772.81384
     40        287.91211   0.0456   0.4531        751.60284       2034.82385
     50        179.21512   0.0426   0.3767        546.42896       1479.35400
     60       1133.01111   0.0474   0.4025        709.63477       1921.20312
     70        221.27438   0.0501   0.5774        971.06720       2628.98242
     80        495.34003   0.0450   0.3618        574.10626       1554.28516
     90        339.74936   0.0482   0.3415        658.49805       1782.76001
    100        327.88641   0.0455   0.4300        668.02374       1808.54907
    110        642.92615   0.0490   0.4738        914.20483       2475.03833
    120        409.64874   0.0547   0.4446        994.00244       2691.07520
    130        562.90723   0.0452   0.4186        635.67584       1720.97314
    140        277.98627   0.0482   0.3374        569.30310       1541.28149
    150        407.57761   0.0480   0.4154        665.20233       1800.91064
    160        554.38153   0.0500   0.4811        772.25494       2090.73560
    170        552.97937   0.0530   0.4983        936.71844       2535.98950
    180       2470.92480   0.0602   0.5534       1428.16602       3866.49170
    190        468.53656   0.0532   0.4951       1079.82886       2923.43433
    200        878.04449   0.0514   0.4049        755.59344       2045.62769
# Molecular dynamics simulation at 1000.00 K
#  Step   Current energy Av shift Mx shift   Kinetic energy    Kinetic temp.
      0        878.04449   0.0000   0.0000        369.36993        999.99988
     10        341.81604   0.0488   0.3893        678.55908       1837.07153
     20       1074.29773   0.0524   0.4260        893.98407       2420.29419
     30        456.60754   0.0569   0.4958       1067.40344       2889.79468
     40        812.79028   0.0654   0.4912       1439.98560       3898.49121
     50        706.08655   0.0645   0.5624       1428.77100       3868.12964
     60        779.27911   0.0665   0.5066       1146.65698       3104.35889
     70        821.31201   0.0644   0.5411       1039.95374       2815.47974
     80        983.76917   0.0650   0.3073        844.09869       2285.23901
     90        588.14966   0.0725   0.5056       1239.39050       3355.41748
    100        997.07422   0.0707   0.3263        997.49463       2700.52979
    110        910.63867   0.0753   0.4271       1262.94421       3419.18481
    120       1392.00366   0.0740   0.4262       1041.13977       2818.69067
    130       1165.98901   0.0819   0.5496       1449.55493       3924.39819
    140       1138.00330   0.0809   0.3446       1191.77393       3226.50464
    150        891.65857   0.0806   0.4742       1297.48315       3512.69238
    160       1722.68152   0.0874   0.6021       1618.32617       4381.31494
    170        945.27191   0.0959   0.5347       1953.90942       5289.84375
    180       1529.77026   0.0891   0.3983       1345.27942       3642.09180
    190       1620.17664   0.0946   0.4350       1623.36255       4394.94971
    200       1317.58936   0.1003   0.4445       1901.45410       5147.83057
    210        838.81946   0.0822   0.3783       1236.52148       3347.65015
    220       1145.25684   0.0837   0.5885       1554.55566       4208.66797
    230       1055.84717   0.0826   0.3454       1180.53699       3196.08252
    240        972.25787   0.0837   0.4091       1312.92615       3554.50146
    250       1343.20923   0.0877   0.5006       1501.96289       4066.28296
    260       2039.90918   0.0901   0.3928       1492.95105       4041.88525
    270       1071.73474   0.0950   0.5242       1708.35547       4625.05225
    280       1610.36975   0.1014   0.5753       2294.42578       6211.72754
    290       1957.75146   0.0999   0.5843       2060.82446       5579.29590
    300       1383.41992   0.1044   0.5128       2113.82837       5722.79395
    310       1628.01855   0.1063   0.4709       1970.13110       5333.76074
    320       1733.93018   0.1040   0.3956       1740.64526       4712.47070
    330       1442.77930   0.1115   0.4522       2171.87671       5879.94922
    340       1733.17737   0.1129   0.4811       2090.28027       5659.04199
    350       2024.23926   0.1162   0.5343       2407.13721       6516.87305
    360       2170.68408   0.1146   0.4552       2220.37671       6011.25391
    370       2587.05884   0.1187   0.4315       2311.03491       6256.69385
    380       2545.84375   0.1248   0.5260       2497.12744       6760.50439
    390       2647.23999   0.1252   0.4285       2416.47192       6542.14502
    400       2773.46826   0.1366   0.5262       3160.24463       8555.76953
    410       1249.97180   0.1121   0.4697       2217.82104       6004.33496
    420       1883.52917   0.1104   0.4636       2171.02051       5877.63135
    430       2082.45508   0.1047   0.3233       1663.91809       4504.74658
    440       1574.23120   0.1120   0.4397       2085.12769       5645.09229
    450       1638.82874   0.1175   0.4722       2247.67773       6085.16602
    460       1908.47205   0.1213   0.5558       2501.59570       6772.60156
    470       2528.33472   0.1262   0.4982       2630.40479       7121.32812
    480       2215.37500   0.1264   0.4638       2440.89233       6608.25830
    490       2504.01636   0.1350   0.3669       2753.81812       7455.44629
    500       2873.64941   0.1398   0.4953       3065.01611       8297.95703
    510       2534.29199   0.1372   0.5425       3104.08447       8403.72656
    520       2602.95020   0.1403   0.4476       3058.89282       8281.37891
    530       2831.74268   0.1360   0.4455       2747.62817       7438.68848
    540       3454.61304   0.1607   0.6755       4544.18701      12302.53418
    550       3291.80273   0.1688   0.5209       4577.52881      12392.80176
    560       4392.79590   0.1642   0.5877       4690.12793      12697.64258
    570       5445.99463   0.1864   0.5517       5257.82764      14234.58301
    580       5321.52930   0.1809   0.5581       5221.92773      14137.39062
    590       4436.49902   0.1845   0.5777       4996.01953      13525.78613
    600       4216.22070   0.1880   0.4790       5226.01709      14148.46191
# Molecular dynamics simulation at 800.00 K
#  Step   Current energy Av shift Mx shift   Kinetic energy    Kinetic temp.
      0       4216.22070   0.0000   0.0000        369.37003       1000.00012
     10       3947.79126   0.1494   0.4996       3544.14941       9595.12012
     20       4865.81836   0.1556   0.6367       3836.13208      10385.60840
     30       4316.37451   0.1665   0.5290       4334.30371      11734.31445
     40       3898.10815   0.1671   0.5200       4119.97656      11154.06445
     50       4828.50977   0.1655   0.5266       4045.06763      10951.26270
     60       3456.96338   0.1782   0.5961       5014.31738      13575.32422
     70       5098.15820   0.1779   0.5427       4798.53662      12991.13867
     80       4618.72852   0.1965   0.5044       5784.96436      15661.70703
     90       5138.33838   0.2001   0.6322       5971.61084      16167.01758
    100       5720.39307   0.1963   0.5277       5539.09668      14996.06641
    110       5606.26611   0.2067   0.5552       6289.72900      17028.26172
    120       6104.99756   0.2187   0.4520       6497.99365      17592.09961
    130       6073.33838   0.2164   0.5201       6631.73779      17954.18750
    140       6974.92676   0.2307   0.5853       7324.97998      19831.00977
    150       6997.62891   0.2194   0.5183       6492.18555      17576.37500
    160       6905.53027   0.2368   0.5730       7476.42773      20241.02734
    170       6293.94824   0.2416   0.5053       7689.33594      20817.43555
    180       7424.02441   0.2313   0.5299       7177.71875      19432.32812
    190       8565.06250   0.2641   0.5238       8952.80078      24238.02930
    200       6839.12402   0.2535   0.5547       8997.46680      24358.95508
    210       4120.75781   0.1753   0.5104       4360.37793      11804.90625
    220       4207.21924   0.1862   0.4485       4710.54688      12752.92285
    230       4630.34424   0.1839   0.5175       4692.51465      12704.10352
    240       4281.45264   0.1899   0.4949       4923.10498      13328.38379
    250       4600.65234   0.1916   0.4673       4861.00635      13160.26367
    260       5681.72021   0.2133   0.5334       6147.05420      16641.99805
    270       5321.01758   0.2096   0.6038       6161.15234      16680.16602
    280       5744.27051   0.2296   0.5932       7307.16016      19782.76562
    290       7201.10645   0.2063   0.6125       6003.35693      16252.96387
    300       7112.70898   0.2232   0.5509       6762.75098      18308.88086
    310       5401.16895   0.2297   0.5509       7227.61377      19567.41016
    320       6272.56445   0.2448   0.6209       8086.35938      21892.30273
    330       6803.82471   0.2417   0.5945       7843.47705      21234.74414
    340       7164.15869   0.2437   0.4908       7824.96973      21184.63867
    350       6333.58057   0.2408   0.4981       7689.73340      20818.51172
    360       7033.96289   0.2413   0.5931       7849.07324      21249.89453
    370       7173.33447   0.2497   0.5616       8228.88379      22278.16016
    380       7305.77197   0.2473   0.5059       8163.28271      22100.55859
    390       8062.59961   0.2513   0.5590       8445.61035      22864.90625
    400       8758.96582   0.2378   0.4882       7326.66797      19835.58008
    410       5762.71680   0.1990   0.5640       5445.72021      14743.26660
    420       5080.55078   0.2157   0.4973       6183.38525      16740.35742
    430       5469.20117   0.1994   0.4783       5262.01221      14245.91211
    440       5796.46143   0.2144   0.4702       6190.62695      16759.96289
    450       6347.89307   0.2289   0.6755       7521.52979      20363.13281
    460       7260.97070   0.2206   0.5266       6672.35107      18064.14062
    470       7514.49658   0.2312   0.5552       7109.33789      19247.19922
    480       6532.03662   0.2496   0.5788       8249.63574      22334.34180
    490       7120.93994   0.2368   0.5422       7351.01660      19901.50000
    500       6571.00049   0.2414   0.5574       7693.85693      20829.67578
    510       7733.04297   0.2478   0.5481       8274.17969      22400.79102
    520       7615.98584   0.2435   0.4918       7869.32568      21304.72461
    530       7463.79053   0.2578   0.5011       8673.53809      23481.97852
    540       7894.12354   0.2498   0.6678       8486.92969      22976.77148
    550       8968.59863   0.2512   0.5583       8367.05469      22652.23242
    560       7335.98096   0.2488   0.5750       8512.61133      23046.29883