# Conjugate gradients optimization
#  Step   Current energy Av shift Mx shift   Funcs         Gradient
      0      11369.36816   0.0000   0.0000       1           581967
     10        136.11235   0.0854   0.2259      21          229.956
     20        117.19511   0.0268   0.1008      41          61.0383
     30        110.79189   0.0196   0.0658      61          48.1137
     40        107.79057   0.0138   0.0601      81          8.24929
     50        106.41287   0.0099   0.0456     101          11.5696
     60        105.61633   0.0113   0.0386     121          6.75956
     70        104.05511   0.0133   0.0489     141          12.7259
     80        102.44877   0.0084   0.0355     161           14.521
     90        101.80426   0.0108   0.0496     181          8.25894
    100        101.22005   0.0050   0.0262     202          2.07304
    110        100.64781   0.0135   0.0394     222          10.6686
    120         99.53583   0.0070   0.0300     242          3.24691
    130         99.24772   0.0123   0.0367     263          5.60149
    140         98.37103   0.0050   0.0247     283          2.84258
    149         97.28092   0.0096   0.0689     301          15.6972
# Conjugate gradients optimization
#  Step   Current energy Av shift Mx shift   Funcs         Gradient
      0       1086.06116   0.0000   0.0000       1          7387.74
     10       1054.71204   0.0115   0.0509      21          1371.11
     20       1045.66174   0.0078   0.0450      41          663.846
     30       1028.17529   0.0088   0.0508      61          1123.99
     40       1012.98547   0.0100   0.0430      81          1305.65
     50       1000.53333   0.0027   0.0125     101          155.571
     60        995.64856   0.0084   0.0499     121          409.574
     70        992.04028   0.0059   0.0257     142          303.591
     80        986.19861   0.0056   0.0259     162          301.885
     90        978.94635   0.0046   0.0369     182          439.643
    100        976.48474   0.0024   0.0099     203          53.2535
    110        974.12750   0.0136   0.0611     223           548.99
    120        969.65222   0.0053   0.0282     244          315.959
    130        962.61902   0.0064   0.0292     264          849.956
    140        956.36584   0.0106   0.0482     284          554.086
    149        952.34320   0.0151   0.0516     301          687.401
# Conjugate gradients optimization
#  Step   Current energy Av shift Mx shift   Funcs         Gradient
      0       4771.27051   0.0000   0.0000       1          28375.8
     10       4743.45850   0.0044   0.0138      21          2772.03
     20       4725.07861   0.0029   0.0152      42          2849.48
     30       4719.38477   0.0067   0.0252      62          3985.08
     40       4697.62061   0.0064   0.0316      82          4969.23
     50       4691.91162   0.0074   0.0214     103          1695.97
     60       4679.62939   0.0116   0.0306     123          9590.61
     70       4659.80957   0.0071   0.0248     143          12382.8
     80       4643.72070   0.0053   0.0184     163          2576.39
     90       4632.94434   0.0023   0.0118     184          1412.52
    100       4628.37061   0.0111   0.0321     204          2559.42
    110       4620.50488   0.0067   0.0229     224           3278.9
    120       4607.13672   0.0089   0.0329     244          4952.49
    130       4597.68652   0.0084   0.0380     264          4713.61
    140       4587.70947   0.0037   0.0151     284          1685.99
    148       4585.03564   0.0023   0.0082     301          662.738
# Conjugate gradients optimization
#  Step   Current energy Av shift Mx shift   Funcs         Gradient
      0       9171.73242   0.0000   0.0000       1          4741.87
     10       9168.63086   0.0031   0.0109      22           3353.5
     20       9153.51758   0.0041   0.0142      45          10883.1
     30       9127.46777   0.0023   0.0156      66           7634.5
     40       9110.38281   0.0039   0.0119      86          47263.8
     50       9097.84863   0.0032   0.0148     106          3385.14
     60       9093.45508   0.0049   0.0095     126          3884.33
     70       9085.34473   0.0103   0.0210     148          10509.4
     80       9071.23535   0.0448   0.0901     168          20018.2
     90       9047.72949   0.0379   0.0692     188          19759.7
    100       9037.44043   0.0126   0.0200     208          5132.76
    110       9031.43457   0.0034   0.0065     228           1995.7
    120       9025.93848   0.0085   0.0185     248          4307.45
    130       9020.84375   0.0066   0.0109     268          5141.15
    140       9015.76953   0.0137   0.0230     288          4767.63
    147       9011.51465   0.0203   0.0355     301          3896.97
# Conjugate gradients optimization
#  Step   Current energy Av shift Mx shift   Funcs         Gradient
      0       9011.51465   0.0000   0.0000       1          6517.76
     10       9008.74219   0.0030   0.0126      22          2746.13
     20       9006.35938   0.0017   0.0099      42           1520.6
     30       9004.61230   0.0020   0.0069      62           1084.5
     40       9003.48242   0.0025   0.0054      82          779.307
     45       9003.40332   0.0002   0.0007     102          231.443
# Conjugate gradients optimization
#  Step   Current energy Av shift Mx shift   Funcs         Gradient
      0       9003.40332   0.0000   0.0000       1          231.443
     10       9002.94824   0.0005   0.0015      21          272.174
     20       9001.70312   0.0074   0.0155      41          1836.04
     30       8998.63086   0.0146   0.0229      61          3894.23
     40       8994.28418   0.0027   0.0078      81          2888.26
     50       8991.58496   0.0165   0.0259     102           7113.9
     60       8990.25977   0.0072   0.0112     123          916.511
     70       8989.06738   0.0018   0.0048     143          695.363
     79       8988.27344   0.0002   0.0007     161           130.57
# Conjugate gradients optimization
#  Step   Current energy Av shift Mx shift   Funcs         Gradient
      0       8988.27344   0.0000   0.0000       1           130.57
      2       8988.21777   0.0002   0.0005       5          194.286
# Conjugate gradients optimization
#  Step   Current energy Av shift Mx shift   Funcs         Gradient
      0       8988.21777   0.0000   0.0000       1          194.286
      1       8988.20508   0.0001   0.0004       5          69.5494
# Conjugate gradients optimization
#  Step   Current energy Av shift Mx shift   Funcs         Gradient
      0       8988.20508   0.0000   0.0000       1          69.5494
      4       8988.01367   0.0003   0.0007       9          136.951
# Conjugate gradients optimization
#  Step   Current energy Av shift Mx shift   Funcs         Gradient
      0       8988.01367   0.0000   0.0000       1          136.951
      1       8988.00586   0.0002   0.0008       3          321.037
# Conjugate gradients optimization
#  Step   Current energy Av shift Mx shift   Funcs         Gradient
      0       8988.00586   0.0000   0.0000       1          321.037
      1       8987.99609   0.0001   0.0007       4          74.1173
# Conjugate gradients optimization
#  Step   Current energy Av shift Mx shift   Funcs         Gradient
      0       8987.99609   0.0000   0.0000       1          74.1173
      1       8987.99512   0.0002   0.0008       3          272.559
# Conjugate gradients optimization
#  Step   Current energy Av shift Mx shift   Funcs         Gradient
      0       8987.99512   0.0000   0.0000       1          272.559
      1       8987.97266   0.0001   0.0009       4          110.955
# Conjugate gradients optimization
#  Step   Current energy Av shift Mx shift   Funcs         Gradient
      0       8987.97266   0.0000   0.0000       1          110.955
      1       8987.96484   0.0001   0.0006       4           100.91
# Conjugate gradients optimization
#  Step   Current energy Av shift Mx shift   Funcs         Gradient
      0       8987.96484   0.0000   0.0000       1           100.91
      1       8987.96484   0.0000   0.0000     301           100.91
# Conjugate gradients optimization
#  Step   Current energy Av shift Mx shift   Funcs         Gradient
      0       8987.96484   0.0000   0.0000       1          100.907
      2       8987.96582   0.0000   0.0000     301          100.895
# Conjugate gradients optimization
#  Step   Current energy Av shift Mx shift   Funcs         Gradient
      0       8987.96582   0.0000   0.0000       1          94.1642
      1       8987.96582   0.0000   0.0000     301          94.1642
# Conjugate gradients optimization
#  Step   Current energy Av shift Mx shift   Funcs         Gradient
      0       8987.96582   0.0000   0.0000       1          94.1643
      1       8987.96582   0.0000   0.0000     301          94.1643
# Conjugate gradients optimization
#  Step   Current energy Av shift Mx shift   Funcs         Gradient
      0       8987.96582   0.0000   0.0000       1          94.1643
      1       8987.96582   0.0000   0.0000     301          94.1643
# Conjugate gradients optimization
#  Step   Current energy Av shift Mx shift   Funcs         Gradient
      0       8987.96582   0.0000   0.0000       1          94.1643
      1       8987.96582   0.0000   0.0000     301          94.1643
# Conjugate gradients optimization
#  Step   Current energy Av shift Mx shift   Funcs         Gradient
      0       8987.96582   0.0000   0.0000       1          94.1643
      1       8987.96582   0.0000   0.0000     301          94.1643
# Conjugate gradients optimization
#  Step   Current energy Av shift Mx shift   Funcs         Gradient
      0       8987.96582   0.0000   0.0000       1          94.1629
      1       8987.96582   0.0000   0.0000     301          94.1629
# Conjugate gradients optimization
#  Step   Current energy Av shift Mx shift   Funcs         Gradient
      0  144969312.00000   0.0000   0.0000       1      2.01954e+18
     10      15179.62891   0.1584   0.5141      21      2.21409e+07
     20       8615.15039   0.0419   0.1663      41      1.10231e+06
     30       7573.29150   0.0110   0.0430      61           465099
     40       7369.59717   0.0161   0.0484      81           193422
     50       7106.24658   0.0102   0.0515     101           202099
     60       7026.21436   0.0203   0.0678     121           341766
     70       6929.96826   0.0065   0.0257     142           214269
     80       6822.66748   0.0051   0.0216     162          98174.6
     90       6750.17822   0.0037   0.0153     183           802487
    100       6728.96826   0.0046   0.0246     216          87804.1
    110       6685.19482   0.0061   0.0760     237       1.5091e+06
    120       6663.51953   0.0009   0.0054     258           131082
# Conjugate gradients optimization
#  Step   Current energy Av shift Mx shift   Funcs         Gradient
      0       9780.39355   0.0000   0.0000       1      2.60943e+07
     10       7983.01270   0.0013   0.0046      30      1.84233e+09
     11       7982.37842   0.0002   0.0006      38      1.53376e+10
# Conjugate gradients optimization
#  Step   Current energy Av shift Mx shift   Funcs         Gradient
      0      12044.28516   0.0000   0.0000       1       1.5381e+10
      1      12043.64551   0.0000   0.0000      13      6.56778e+09
# Conjugate gradients optimization
#  Step   Current energy Av shift Mx shift   Funcs         Gradient
      0      17120.81445   0.0000   0.0000       1      6.62617e+09
     10       5643.06152   0.0885   0.1799      22      2.54313e+06
     20       3693.94482   0.0316   0.1164      42           539001
     30       3054.13330   0.0431   0.1542      62           501770
     40       2688.48096   0.0235   0.0718      82           231957
     50       2481.89941   0.0140   0.0428     102          75654.3
     60       2386.39136   0.0135   0.0452     122           181629
     70       2318.66260   0.0116   0.0405     142          29272.3
     80       2277.19922   0.0022   0.0096     163            12281
     90       2258.32739   0.0199   0.0666     183          41636.9
    100       2204.67188   0.0062   0.0192     203            48765
    110       2161.47070   0.0026   0.0117     225          27345.7
    120       2099.41504   0.0042   0.0309     245          12420.7
    130       2060.82324   0.0033   0.0158     265          28771.5
    140       2047.65588   0.0005   0.0031     285          1147.54
    148       2044.21448   0.0011   0.0048     301          1453.49
# Molecular dynamics simulation at 150.00 K
#  Step   Current energy Av shift Mx shift   Kinetic energy    Kinetic temp.
      0       2045.38831   0.0000   0.0000         56.75371        153.65002
     10       2206.43530   0.0466   0.1811        384.95343       1042.18921
     20       2010.90515   0.0784   0.2523        940.23315       2545.50513
     30       1714.00098   0.0602   0.2030        530.09131       1435.12280
     40       1586.67505   0.0713   0.2455        719.47284       1947.83789
     50       1292.97693   0.0641   0.1821        556.34247       1506.19299
     60       1183.35120   0.0721   0.1897        723.02100       1957.44385
     70        993.09668   0.0520   0.1525        377.10849       1020.95056
     80        963.11609   0.0560   0.1539        423.71835       1147.13806
     90        820.72894   0.0407   0.1003        224.99612        609.13483
    100        826.95691   0.0425   0.1162        244.52409        662.00317
    110        746.08099   0.0371   0.1562        200.28175        542.22528
    120        749.43396   0.0390   0.0986        211.12770        571.58868
    130        664.36237   0.0376   0.1183        206.03772        557.80853
    140        824.21289   0.0399   0.1475        239.37892        648.07355
    150        859.13641   0.0396   0.2585        330.18430        893.91211
    160       1691.71594   0.0457   0.5298        705.47308       1909.93616
    170       1314.83240   0.0393   0.3906        561.78326       1520.92285
    180       1436.85193   0.0487   0.4868        961.53546       2603.17700
    190        801.80652   0.0490   0.4764        978.52789       2649.18091
    200       1631.99927   0.0427   0.3840        519.33655       1406.00635
# Molecular dynamics simulation at 250.00 K
#  Step   Current energy Av shift Mx shift   Kinetic energy    Kinetic temp.
      0       1631.82092   0.0000   0.0000         55.40548        149.99995
     10        884.84570   0.0392   0.3341        389.70361       1055.04944
     20        693.10535   0.0461   0.3725        673.86914       1824.37439
     30        753.64868   0.0455   0.4476        751.35809       2034.16125
     40       1129.71521   0.0420   0.3822        631.17413       1708.78564
     50        909.33173   0.0416   0.5333        924.89038       2503.96729
     60       1179.74072   0.0443   0.4352        801.53827       2170.01465
     70        777.40149   0.0420   0.4262        716.04498       1938.55762
     80       1199.93701   0.0393   0.3342        548.18243       1484.10120
     90        852.83392   0.0424   0.4437        784.93176       2125.05566
    100       1477.33301   0.0409   0.3915        600.52551       1625.81030
    110        652.75549   0.0444   0.4204        866.63605       2346.25464
    120        865.82141   0.0476   0.4848        916.99329       2482.58740
    130        619.94098   0.0352   0.2354        360.45444        975.86285
    140        516.65137   0.0373   0.3542        463.15945       1253.91736
    150        355.03482   0.0366   0.2414        391.98471       1061.22510
    160        441.12866   0.0348   0.3164        341.36096        924.17084
    170        305.10907   0.0327   0.2111        239.73747        649.04425
    180        308.97018   0.0322   0.2053        259.34973        702.14081
    190        247.39557   0.0272   0.1808        147.91989        400.46539
    200        338.95132   0.0291   0.1614        160.85561        435.48639
# Molecular dynamics simulation at 400.00 K
#  Step   Current energy Av shift Mx shift   Kinetic energy    Kinetic temp.
      0        339.92752   0.0000   0.0000         92.34251        250.00005
     10        277.51950   0.0293   0.1597        177.76549        481.26675
     20        291.03104   0.0296   0.1991        183.15463        495.85684
     30        278.94446   0.0299   0.1403        169.32205        458.40771
     40        245.50964   0.0332   0.2203        224.89879        608.87134
     50        212.31592   0.0290   0.1554        156.72554        424.30502
     60        220.23871   0.0290   0.1127        143.41154        388.25989
     70        237.60776   0.0324   0.1650        186.16551        504.00824
     80        260.70929   0.0307   0.1328        164.14594        444.39435
     90        249.75061   0.0299   0.1314        148.60069        402.30853
    100        203.54678   0.0326   0.1284        169.20740        458.09732
    110        235.23010   0.0305   0.0997        144.28275        390.61850
    120        211.18314   0.0331   0.1111        174.75697        473.12177
    130        209.38654   0.0318   0.0971        149.53857        404.84766
    140        238.45700   0.0293   0.0841        124.26956        336.43655
    150        205.52338   0.0343   0.0928        169.89806        459.96713
    160        233.17581   0.0303   0.0809        131.43622        355.83893
    170        208.49350   0.0358   0.1082        189.79828        513.84326
    180        217.09317   0.0353   0.1378        188.45110        510.19601
    190        207.59058   0.0325   0.1291        159.97096        433.09140
    200        202.30026   0.0334   0.1353        165.84505        448.99438
# Molecular dynamics simulation at 700.00 K
#  Step   Current energy Av shift Mx shift   Kinetic energy    Kinetic temp.
      0        202.30026   0.0000   0.0000        147.74799        399.99997
     10        206.96231   0.0308   0.0816        135.26108        366.19403
     20        198.52191   0.0332   0.0895        153.63379        415.93469
     30        260.42828   0.0387   0.1151        203.65666        551.36224
     40        261.05072   0.0398   0.1019        223.37978        604.75885
     50        307.26273   0.0410   0.1186        237.58311        643.21173
     60        291.96878   0.0413   0.1363        246.08575        666.23108
     70        320.65549   0.0429   0.1252        262.82880        711.55969
     80        311.99081   0.0452   0.1195        284.50992        770.25726
     90        288.83987   0.0432   0.1403        267.41223        723.96851
    100        273.28970   0.0451   0.1388        296.33572        802.27344
    110        329.22269   0.0462   0.1143        282.45004        764.68054
    120        338.16595   0.0452   0.1193        283.02811        766.24554
    130        279.56662   0.0457   0.1182        289.79172        784.55676
    140        373.09186   0.0471   0.2155        339.18933        918.29156
    150        352.61655   0.0452   0.1849        307.97540        833.78571
    160        355.64862   0.0433   0.1554        278.71606        754.57153
    170        633.44373   0.0526   0.3079        512.29797       1386.95068
    180        800.75726   0.0601   0.3784        836.09351       2263.56641
    190        904.56067   0.0482   0.2673        471.21161       1275.71716
    200        669.16235   0.0500   0.3928        597.69177       1618.13843
# Molecular dynamics simulation at 1000.00 K
#  Step   Current energy Av shift Mx shift   Kinetic energy    Kinetic temp.
      0        669.16235   0.0000   0.0000        258.55902        700.00006
     10        583.81763   0.0482   0.4170        598.75543       1621.01807
     20       1079.11633   0.0523   0.4045        728.74731       1972.94678
     30        294.58685   0.0528   0.5184        894.00330       2420.34644
     40        953.74530   0.0509   0.4255        685.39307       1855.57324
     50        197.11270   0.0454   0.3090        529.80457       1434.34656
     60        490.17917   0.0450   0.3910        549.55469       1487.81628
     70        436.60846   0.0519   0.6253        951.81824       2576.86938
     80        866.11951   0.0552   0.6203       1146.27795       3103.33276
     90        489.27112   0.0511   0.5075        881.39233       2386.20459
    100        502.13095   0.0553   0.5402       1070.58411       2898.40576
    110        260.99017   0.0467   0.3868        606.33405       1641.53577
    120        207.45996   0.0545   0.3996        821.29651       2223.50635
    130        291.31580   0.0431   0.3089        427.99265       1158.70984
    140        111.12164   0.0488   0.3411        525.87299       1423.70251
    150        577.21448   0.0496   0.3595        592.50806       1604.10449
    160        790.05231   0.0507   0.3259        614.17688       1662.76880
    170       1509.54736   0.0603   0.5476       1432.78406       3878.99438
    180       1245.07422   0.0651   0.5937       1509.43359       4086.50854
    190        756.49292   0.0601   0.5240       1270.66748       3440.09399
    200       1092.22119   0.0620   0.4903       1199.83386       3248.32520
# Molecular dynamics simulation at 1000.00 K
#  Step   Current energy Av shift Mx shift   Kinetic energy    Kinetic temp.
      0       1092.22119   0.0000   0.0000        369.36996        999.99994
     10        871.95544   0.0606   0.4431       1146.11011       3102.87842
     20        810.64923   0.0564   0.4362       1000.53864       2708.77075
     30       1115.47510   0.0669   0.4982       1457.80579       3946.73584
     40        531.62366   0.0639   0.4155       1037.80664       2809.66699
     50       1202.47424   0.0596   0.3797        924.29907       2502.36646
     60       1230.60193   0.0709   0.5269       1528.70752       4138.68896
     70       1156.14026   0.0734   0.5538       1406.64026       3808.21484
     80       1055.06677   0.0772   0.5742       1527.21973       4134.66113
     90        882.90491   0.0774   0.5464       1521.32581       4118.70459
    100       2020.46069   0.0818   0.6165       1590.64929       4306.38477
    110       1796.31763   0.0836   0.5931       1581.27686       4281.01074
    120       2623.75977   0.1012   0.5763       2575.25684       6972.02539
    130       1530.44629   0.0957   0.4777       1958.43506       5302.09570
    140       2106.29883   0.1000   0.5761       2123.50928       5749.00342
    150       2780.88013   0.1068   0.4574       2258.84790       6115.40723
    160       3202.34497   0.1032   0.6755       2336.78687       6326.41260
    170       2108.41602   0.1116   0.5541       2417.53027       6545.01025
    180       2328.54126   0.1089   0.4755       2270.69458       6147.47998
    190       2273.04980   0.1123   0.4562       2284.73682       6185.49658
    200       2857.67212   0.1193   0.4541       2553.50220       6913.12842
    210       1464.20972   0.0970   0.4744       1873.33337       5071.69922
    220       1448.20288   0.1030   0.4766       2138.21313       5788.81152
    230       2226.75317   0.1099   0.5225       2419.78271       6551.10840
    240       2593.99194   0.1181   0.6755       2843.96240       7699.49512
    250       2527.64502   0.1234   0.4834       2749.66528       7444.20361
    260       2819.52148   0.1288   0.5516       3029.13354       8200.81152
    270       3610.71582   0.1367   0.6488       3959.43066      10719.41602
    280       2553.89673   0.1462   0.5491       3884.03857      10515.30664
    290       3260.35791   0.1418   0.4311       3359.77466       9095.95996
    300       2708.15234   0.1498   0.5363       3762.02148      10184.96777
    310       3199.96289   0.1506   0.5935       3836.26465      10385.96777
    320       2672.79199   0.1564   0.5250       3759.45874      10178.03027
    330       2612.31665   0.1611   0.4982       4045.82690      10953.31836
    340       3010.12793   0.1495   0.4426       3498.33154       9471.07715
    350       3659.31519   0.1650   0.6205       4384.06348      11869.03027
    360       3365.79810   0.1670   0.5306       4326.12695      11712.17773
    370       3803.20142   0.1692   0.4953       4391.56787      11889.34668
    380       3831.35498   0.1746   0.6415       4718.43848      12774.28809
    390       4405.39648   0.1653   0.4405       3879.03003      10501.74707
    400       4716.77051   0.1740   0.5143       4427.80908      11987.46289
    410       3364.34277   0.1339   0.4117       2544.90063       6889.84131
    420       3841.09717   0.1310   0.5861       2685.95435       7271.71777
    430       3220.27002   0.1431   0.5430       3216.74146       8708.72461
    440       3441.93408   0.1551   0.5911       3894.79175      10544.41895
    450       3564.94629   0.1549   0.5506       3781.58276      10237.92676
    460       2092.86890   0.1668   0.5408       4330.43115      11723.83105
    470       2643.28955   0.1616   0.5068       3791.00537      10263.43652
    480       3714.02100   0.1557   0.4563       3350.79883       9071.66016
    490       3670.09302   0.1707   0.5130       4314.29639      11680.14844
    500       4575.93945   0.1975   0.5807       5756.71729      15585.23340
    510       4056.96265   0.1860   0.5308       5046.07031      13661.29004
    520       3779.18433   0.1932   0.5208       5375.28125      14552.56641
    530       4425.96973   0.1911   0.5751       5311.92676      14381.04590
    540       4432.31494   0.1992   0.4779       5616.99805      15206.96973
    550       6252.84277   0.2056   0.5557       5809.67529      15728.60742
    560       5777.22021   0.2013   0.4508       5708.28223      15454.10449
    570       6293.88037   0.2117   0.5800       6370.88086      17247.96680
    580       8135.96533   0.2428   0.6755       8574.41699      23213.62695
    590       6712.37305   0.2280   0.5301       7375.32373      19967.30664
    600       6267.26709   0.2390   0.5406       8107.65381      21949.95312
# Molecular dynamics simulation at 800.00 K
#  Step   Current energy Av shift Mx shift   Kinetic energy    Kinetic temp.
      0       6267.26709   0.0000   0.0000        369.37003       1000.00012
     10       4073.65991   0.1846   0.6509       4932.81055      13354.66016
     20       5391.75537   0.2038   0.5789       6115.17529      16555.69141
     30       5036.12500   0.1971   0.5382       5480.61768      14837.74512
     40       4639.84570   0.2058   0.4938       5751.84131      15572.03223
     50       6040.12939   0.2056   0.5362       5802.32178      15708.69824
     60       5805.57568   0.1949   0.5550       5395.64893      14607.70801
     70       5127.96094   0.2242   0.4583       6603.40039      17877.46875
     80       5569.26416   0.2161   0.5703       6471.55127      17520.51172
     90       6232.99268   0.2233   0.4678       6546.72803      17724.03906
    100       5004.47900   0.2164   0.5844       6461.39453      17493.01367
    110       6684.71240   0.2371   0.5196       7632.83643      20664.47461
    120       5909.21973   0.2301   0.6547       7069.79150      19140.13477
    130       6533.32520   0.2296   0.5539       7180.95117      19441.08008
    140       7246.16895   0.2366   0.4826       7187.48340      19458.76367
    150       6708.89355   0.2304   0.5396       6852.06689      18550.68750
    160       9039.79004   0.2544   0.6755       8322.33105      22531.15234
    170       6836.36572   0.2473   0.5534       7991.67041      21635.94922
    180       8197.74707   0.2639   0.5747       8982.55176      24318.57617
    190       7225.63379   0.2408   0.4993       7549.61719      20439.17383
    200       6727.03223   0.2505   0.6177       8270.02441      22389.54102
    210       4040.69189   0.1879   0.4235       4800.71582      12997.03809
    220       5424.56836   0.1932   0.5541       5278.93408      14291.72461
    230       4927.81445   0.2002   0.5729       5451.27393      14758.30273
    240       4918.99805   0.2051   0.5082       5664.59277      15335.82324
    250       5300.62207   0.2127   0.5004       5974.43457      16174.66211
    260       4739.98291   0.2120   0.5830       6143.06787      16631.20508
    270       6515.05957   0.2138   0.5730       6128.83350      16592.66797
    280       5911.05908   0.2393   0.5523       7686.97803      20811.05273
    290       6817.83447   0.2259   0.5120       6808.46094      18432.63281
    300       6785.63867   0.2385   0.5530       7629.24121      20654.74023
    310       7996.67090   0.2456   0.5276       8082.21582      21881.08398
    320       7376.47510   0.2448   0.4991       7988.03564      21626.10938
    330       7197.77539   0.2434   0.5666       7870.72998      21308.52539
    340       7320.80029   0.2341   0.5292       7029.47168      19030.97656
    350       7063.09375   0.2428   0.4684       7576.76562      20512.67188
    360       7562.54980   0.2515   0.6263       8484.96289      22971.44727
    370       7519.08301   0.2573   0.6061       8845.00000      23946.17969
    380       7450.30859   0.2696   0.6582       9820.87500      26588.17773
    390       7280.04004   0.2692   0.6016       9469.09277      25635.79297
    400       8643.29297   0.2649   0.5579       9452.74121      25591.52539
    410       5191.27295   0.1956   0.4666       5303.51660      14358.27734
    420       5046.63477   0.2180   0.6755       6684.67090      18097.49414
    430       4961.14160   0.2212   0.5275       6573.64453      17796.91016
    440       5836.44141   0.2240   0.4770       6516.22607      17641.46094
    450       5815.64697   0.2314   0.6285       7025.68408      19020.72266
    460       7565.64941   0.2293   0.4767       6671.27295      18061.22070
    470       8065.45117   0.2402   0.6230       7709.21777      20871.26172
    480       6780.24609   0.2551   0.6135       8832.11914      23911.30664