# Conjugate gradients optimization
#  Step   Current energy Av shift Mx shift   Funcs         Gradient
      0      11536.34375   0.0000   0.0000       1           561487
     10        141.63805   0.0808   0.2446      21          205.783
     20        113.30067   0.0418   0.1281      41          100.844
     30        104.44256   0.0069   0.0269      61          14.1405
     40        102.03627   0.0181   0.0581      81           41.275
     50        100.04087   0.0131   0.0503     101          10.2266
     60         98.67489   0.0121   0.0586     121          8.27641
     70         97.34029   0.0151   0.0631     141          10.3811
     80         96.46428   0.0045   0.0192     162          2.34751
     90         95.62849   0.0085   0.0450     183          21.4229
    100         94.26370   0.0060   0.0251     204           4.8909
    110         93.57769   0.0132   0.0728     224          8.09384
    120         92.20197   0.0104   0.0577     244           9.8759
    130         90.93306   0.0050   0.0306     264           2.5528
    140         90.21396   0.0097   0.0674     284          9.38821
    149         89.50259   0.0104   0.0444     301          6.00914
# Conjugate gradients optimization
#  Step   Current energy Av shift Mx shift   Funcs         Gradient
      0        963.60907   0.0000   0.0000       1          2193.28
     10        945.99969   0.0068   0.0297      21          314.641
     20        941.17560   0.0107   0.0412      41          634.338
     30        930.01312   0.0073   0.0313      61          1264.55
     40        922.11597   0.0071   0.0348      82          694.487
     50        913.62732   0.0061   0.0315     102          524.472
     60        907.28833   0.0102   0.0411     122           1267.7
     70        901.66272   0.0101   0.0298     142          326.195
     80        892.67102   0.0158   0.0562     162          1065.57
     90        884.53113   0.0047   0.0163     182          310.723
    100        880.81299   0.0049   0.0143     203           124.61
    110        879.23657   0.0073   0.0244     223          218.656
    120        877.09387   0.0037   0.0145     244           87.479
    130        873.09045   0.0047   0.0176     265          190.298
    140        869.48975   0.0056   0.0215     285          358.907
    148        865.58722   0.0015   0.0095     301          849.314
# Conjugate gradients optimization
#  Step   Current energy Av shift Mx shift   Funcs         Gradient
      0       4329.99121   0.0000   0.0000       1          11755.9
     10       4319.27637   0.0029   0.0157      22          8090.08
     20       4305.47070   0.0014   0.0050      42          2246.04
     30       4304.00342   0.0071   0.0210      71          14720.4
     40       4298.91992   0.0005   0.0024      93          20286.3
     50       4292.26025   0.0014   0.0079     114          2995.65
     60       4290.40283   0.0011   0.0050     134          25176.2
     70       4288.49951   0.0030   0.0140     155          2568.51
     80       4286.63965   0.0011   0.0056     175          6582.17
     82       4286.45361   0.0001   0.0006     179          639.038
# Conjugate gradients optimization
#  Step   Current energy Av shift Mx shift   Funcs         Gradient
      0       8573.55566   0.0000   0.0000       1           2594.6
      2       8573.41797   0.0001   0.0008       7          1082.96
# Conjugate gradients optimization
#  Step   Current energy Av shift Mx shift   Funcs         Gradient
      0       8573.41797   0.0000   0.0000       1          1082.96
      3       8573.28613   0.0000   0.0004       8           793.22
# Conjugate gradients optimization
#  Step   Current energy Av shift Mx shift   Funcs         Gradient
      0       8573.28613   0.0000   0.0000       1           793.22
      6       8573.04004   0.0000   0.0005      15          491.238
# Conjugate gradients optimization
#  Step   Current energy Av shift Mx shift   Funcs         Gradient
      0       8573.04004   0.0000   0.0000       1          491.238
     10       8569.90039   0.0021   0.0063      22          5687.33
     15       8569.21582   0.0001   0.0007      32          1932.79
# Conjugate gradients optimization
#  Step   Current energy Av shift Mx shift   Funcs         Gradient
      0       8568.95605   0.0000   0.0000       1          1959.92
      3       8568.86914   0.0000   0.0007      10          1112.35
# Conjugate gradients optimization
#  Step   Current energy Av shift Mx shift   Funcs         Gradient
      0       8568.86914   0.0000   0.0000       1          1112.35
      8       8567.67969   0.0001   0.0009      17          3142.23
# Conjugate gradients optimization
#  Step   Current energy Av shift Mx shift   Funcs         Gradient
      0       8567.63867   0.0000   0.0000       1          3138.84
      1       8567.62402   0.0001   0.0008       7          4252.86
# Conjugate gradients optimization
#  Step   Current energy Av shift Mx shift   Funcs         Gradient
      0       8567.62402   0.0000   0.0000       1          4252.86
      1       8567.60059   0.0000   0.0007       8          1527.49
# Conjugate gradients optimization
#  Step   Current energy Av shift Mx shift   Funcs         Gradient
      0       8567.60059   0.0000   0.0000       1          1527.49
      1       8567.57520   0.0000   0.0005       7          1927.07
# Conjugate gradients optimization
#  Step   Current energy Av shift Mx shift   Funcs         Gradient
      0       8567.57520   0.0000   0.0000       1          1927.07
      1       8567.56934   0.0000   0.0004       8          789.459
# Conjugate gradients optimization
#  Step   Current energy Av shift Mx shift   Funcs         Gradient
      0       8567.56934   0.0000   0.0000       1          789.459
      1       8567.55566   0.0001   0.0004       6          3093.71
# Conjugate gradients optimization
#  Step   Current energy Av shift Mx shift   Funcs         Gradient
      0       8567.55566   0.0000   0.0000       1          3093.71
      1       8567.53906   0.0000   0.0006       8          1631.41
# Conjugate gradients optimization
#  Step   Current energy Av shift Mx shift   Funcs         Gradient
      0       8567.53906   0.0000   0.0000       1          1631.41
      1       8567.53613   0.0000   0.0003       8          597.718
# Conjugate gradients optimization
#  Step   Current energy Av shift Mx shift   Funcs         Gradient
      0       8567.53613   0.0000   0.0000       1          597.718
      1       8567.51953   0.0001   0.0005       6          3625.38
# Conjugate gradients optimization
#  Step   Current energy Av shift Mx shift   Funcs         Gradient
      0       8567.51953   0.0000   0.0000       1          3625.38
      1       8567.51172   0.0000   0.0005       8          681.684
# Conjugate gradients optimization
#  Step   Current energy Av shift Mx shift   Funcs         Gradient
      0       8567.51172   0.0000   0.0000       1          681.684
      1       8567.50684   0.0000   0.0002       8          537.911
# Conjugate gradients optimization
#  Step   Current energy Av shift Mx shift   Funcs         Gradient
      0       8567.50684   0.0000   0.0000       1          537.911
      1       8567.50293   0.0000   0.0003       7          1045.91
# Conjugate gradients optimization
#  Step   Current energy Av shift Mx shift   Funcs         Gradient
      0       8567.50293   0.0000   0.0000       1          1045.91
      1       8567.50000   0.0000   0.0003       8          695.098
# Conjugate gradients optimization
#  Step   Current energy Av shift Mx shift   Funcs         Gradient
      0       8567.50000   0.0000   0.0000       1          695.098
      1       8567.49121   0.0000   0.0004       7          1737.26
# Conjugate gradients optimization
#  Step   Current energy Av shift Mx shift   Funcs         Gradient
      0   50556116.00000   0.0000   0.0000       1       6.1191e+17
     10      10728.32617   0.0988   0.3197      21      3.79007e+06
     20       7824.13037   0.0294   0.0850      41           510755
     30       7035.24219   0.0212   0.0805      61           318150
     40       6536.79248   0.0171   0.0483      81           163422
     50       6149.61621   0.0217   0.0982     101           347162
     60       5799.06738   0.0085   0.0480     121           103148
     70       5639.20312   0.0117   0.0470     141          76785.7
     80       5526.89209   0.0058   0.0324     161          63398.5
     90       5435.24902   0.0052   0.0333     181          66521.5
    100       5394.31299   0.0080   0.0388     201            14653
    110       5330.45654   0.0074   0.0403     221          74790.9
    120       5306.90186   0.0003   0.0085     254          2487.97
    130       5281.88574   0.0065   0.0327     275          31797.4
    140       5257.70898   0.0033   0.0180     295          6124.23
    143       5255.20117   0.0030   0.0133     301           7344.2
# Conjugate gradients optimization
#  Step   Current energy Av shift Mx shift   Funcs         Gradient
      0       6886.76025   0.0000   0.0000       1      7.31089e+06
     10       5931.33203   0.0138   0.0740      21           206570
     20       5722.64209   0.0083   0.0324      41          72723.9
     30       5625.39941   0.0095   0.0244      62          77604.4
     40       5405.39990   0.0079   0.0378      83          42232.3
     50       5307.17773   0.0082   0.0404     103          47485.6
     60       5217.60645   0.0070   0.0424     123          82642.1
     70       5170.69141   0.0056   0.0167     143          25952.8
     80       5129.53320   0.0055   0.0252     163          36096.1
     90       5062.53906   0.0069   0.0327     183          41969.5
    100       5031.29834   0.0033   0.0130     203          8161.35
    110       5006.40674   0.0591   0.2426     223           323620
    120       4874.22754   0.0055   0.0218     243          69827.5
    130       4817.91406   0.0032   0.0141     263          37240.7
    140       4760.53174   0.0029   0.0166     284          66103.6
    149       4740.07471   0.0056   0.0252     301          16964.4
# Conjugate gradients optimization
#  Step   Current energy Av shift Mx shift   Funcs         Gradient
      0       6053.73096   0.0000   0.0000       1      3.43098e+06
     10       5006.46875   0.0214   0.0777      21           407770
     20       4471.95947   0.0097   0.0338      41           230405
     30       4261.70508   0.0085   0.0206      61          50459.9
     40       4127.45996   0.0109   0.0381      82           207134
     50       4021.24219   0.0095   0.0390     103          58175.6
     60       3948.53369   0.0115   0.0293     123          48369.1
     70       3878.04810   0.0046   0.0214     143          63515.6
     80       3826.73560   0.0040   0.0164     163          26366.8
     90       3760.55078   0.0049   0.0233     184          52651.3
    100       3705.12378   0.0083   0.0370     204           138475
    110       3615.97632   0.0117   0.0862     224          77170.2
    120       3559.33472   0.0036   0.0182     245          60041.1
    130       3510.20654   0.0065   0.0429     265          45918.4
    140       3455.53784   0.0162   0.0686     285           193136
    148       3393.91772   0.0046   0.0248     301            20446
# Conjugate gradients optimization
#  Step   Current energy Av shift Mx shift   Funcs         Gradient
      0       3641.34570   0.0000   0.0000       1           275285
     10       3462.16138   0.0047   0.0285      21           110709
     20       3401.41602   0.0013   0.0047      41            13866
     21       3401.37598   0.0013   0.0047     301            13866
# Molecular dynamics simulation at 150.00 K
#  Step   Current energy Av shift Mx shift   Kinetic energy    Kinetic temp.
      0       3400.41528   0.0000   0.0000         57.80731        156.50246
     10       3529.73218   0.0765   0.2532        890.82056       2411.72974
     20       3094.19873   0.1310   0.3264       2315.56836       6268.96729
     30       2656.78516   0.1197   0.4123       2215.98633       5999.36768
     40       2842.23901   0.1385   0.5585       3191.70459       8640.94238
     50       2604.76245   0.1106   0.6181       2595.24927       7026.15088
     60       3183.98584   0.1091   0.5065       2168.67334       5871.27637
     70       2156.65967   0.0950   0.4480       1887.90332       5111.14453
     80       2736.09888   0.1045   0.4508       2206.60498       5973.96924
     90       1534.19336   0.0914   0.4538       1791.67017       4850.61133
    100       1884.77417   0.0903   0.4155       1636.41431       4430.28516
    110       1383.30127   0.0742   0.3576       1120.27991       3032.94775
    120       1303.11902   0.0808   0.5809       1583.38062       4286.70605
    130        857.48352   0.0568   0.2503        579.87793       1569.91077
    140        945.52197   0.0610   0.2781        688.90088       1865.07007
    150        715.76953   0.0478   0.2448        409.30453       1108.11536
    160        873.50854   0.0569   0.4578        821.43243       2223.87427
    170        707.95410   0.0468   0.2566        421.69919       1141.67151
    180        710.67480   0.0487   0.2463        494.41904       1338.54688
    190        536.37891   0.0439   0.2308        352.73013        954.95074
    200        562.92896   0.0416   0.2102        327.01770        885.33911
# Molecular dynamics simulation at 250.00 K
#  Step   Current energy Av shift Mx shift   Kinetic energy    Kinetic temp.
      0        562.92896   0.0000   0.0000         55.40550        150.00002
     10        485.87137   0.0410   0.2121        309.09811        836.82520
     20        436.56226   0.0402   0.2241        331.07211        896.31567
     30        312.61731   0.0364   0.1633        236.06636        639.10541
     40        525.19775   0.0426   0.2952        405.31564       1097.31616
     50        559.76941   0.0403   0.3636        407.00595       1101.89233
     60       1138.88525   0.0522   0.5370       1002.21674       2713.31396
     70       1275.28735   0.0544   0.5476       1253.49646       3393.60669
     80        857.73120   0.0604   0.5134       1265.86536       3427.09326
     90        746.30273   0.0552   0.6755       1479.91077       4006.58105
    100       1230.48560   0.0577   0.4180       1039.31421       2813.74854
    110        613.09436   0.0447   0.3948        615.19519       1665.52563
    120       1108.07190   0.0533   0.4360       1027.08264       2780.63379
    130        416.00363   0.0452   0.4447        746.09875       2019.92249
    140        925.17468   0.0505   0.4463        883.47205       2391.83496
    150       1079.56226   0.0412   0.3878        556.02478       1505.33289
    160        393.75974   0.0489   0.4792        897.31104       2429.30151
    170        -20.29878   0.0348   0.2467        320.81595        868.54907
    180         69.03557   0.0370   0.2307        368.76413        998.35974
    190        -30.09582   0.0309   0.2250        265.30292        718.25793
    200        -39.53648   0.0359   0.4334        427.99542       1158.71741
# Molecular dynamics simulation at 400.00 K
#  Step   Current energy Av shift Mx shift   Kinetic energy    Kinetic temp.
      0        -39.53648   0.0000   0.0000         92.34248        249.99994
     10        -91.76871   0.0260   0.1894        145.30531        393.38690
     20       -127.86963   0.0293   0.1500        185.34273        501.78070
     30       -175.21773   0.0288   0.1547        164.38985        445.05469
     40       -128.85744   0.0283   0.2047        166.34407        450.34540
     50       -178.17250   0.0294   0.2200        173.44710        469.57550
     60       -104.28851   0.0312   0.1719        174.78853        473.20718
     70       -151.57111   0.0281   0.0960        121.18782        328.09332
     80       -162.45541   0.0295   0.1515        137.48589        372.21725
     90       -166.88754   0.0308   0.1246        146.58110        396.84085
    100       -150.42445   0.0338   0.1173        176.14970        476.89230
    110       -127.17052   0.0333   0.1769        189.11618        511.99661
    120       -134.99998   0.0331   0.2230        212.39244        575.01270
    130       -139.77817   0.0335   0.1865        213.26414        577.37268
    140        -93.83369   0.0329   0.1464        188.02635        509.04611
    150       -135.13954   0.0299   0.1291        136.17261        368.66180
    160       -146.27162   0.0326   0.1703        178.66182        483.69339
    170       -131.60677   0.0309   0.1392        162.53625        440.03644
    180       -157.80505   0.0318   0.1359        176.05524        476.63657
    190       -183.25410   0.0325   0.1352        167.61708        453.79184
    200       -157.11806   0.0319   0.1473        171.05370        463.09583
# Molecular dynamics simulation at 700.00 K
#  Step   Current energy Av shift Mx shift   Kinetic energy    Kinetic temp.
      0       -157.11806   0.0000   0.0000        147.74805        400.00015
     10       -177.96361   0.0306   0.1185        140.02615        379.09457
     20       -171.86763   0.0304   0.1105        143.06137        387.31186
     30       -128.36211   0.0381   0.1427        236.96255        641.53168
     40        -56.25009   0.0375   0.1084        200.50446        542.82825
     50        -33.69648   0.0392   0.1167        216.25316        585.46490
     60        -58.64512   0.0395   0.1691        251.59265        681.13995
     70        -89.58392   0.0403   0.1921        243.66249        659.67053
     80        -46.70679   0.0416   0.1386        263.40628        713.12311
     90        -91.20650   0.0442   0.1619        282.93805        766.00171
    100       -103.59433   0.0452   0.1310        290.66190        786.91260
    110        -82.67027   0.0434   0.1745        276.71048        749.14178
    120        -85.44001   0.0431   0.1080        252.90411        684.69049
    130        -37.08385   0.0406   0.0927        225.81894        611.36243
    140       -122.41041   0.0462   0.1200        303.87976        822.69751
    150       -116.37473   0.0411   0.0903        226.30966        612.69098
    160       -117.00827   0.0419   0.1051        248.08864        671.65350
    170       -158.60889   0.0444   0.1344        278.75897        754.68768
    180       -109.17943   0.0441   0.1276        271.57144        735.22876
    190       -112.48954   0.0442   0.1138        256.20111        693.61652
    200       -137.13896   0.0443   0.1110        263.82687        714.26184
# Molecular dynamics simulation at 1000.00 K
#  Step   Current energy Av shift Mx shift   Kinetic energy    Kinetic temp.
      0       -137.17122   0.0000   0.0000        258.55902        700.00006
     10       -133.26291   0.0454   0.1230        280.93021        760.56586
     20       -125.12593   0.0461   0.1350        288.62186        781.38959
     30        -81.53016   0.0481   0.1076        301.48508        816.21436
     40        -64.70360   0.0458   0.1100        282.88950        765.87030
     50        -74.11569   0.0547   0.1151        395.95166       1071.96497
     60        -51.74048   0.0538   0.1397        377.54565       1022.13409
     70        -10.21722   0.0527   0.1359        366.96875        993.49908
     80         -8.57790   0.0520   0.1152        362.64490        981.79309
     90        -27.55838   0.0521   0.1374        380.90851       1031.23840
    100         25.84918   0.0532   0.1365        374.67239       1014.35529
    110          9.12679   0.0526   0.1139        373.77426       1011.92377
    120         10.67972   0.0528   0.1012        362.60220        981.67749
    130         31.23277   0.0543   0.1368        397.61517       1076.46851
    140        -13.09116   0.0552   0.1245        401.36795       1086.62854
    150          0.27057   0.0525   0.1212        362.35843        981.01752
    160         -5.55730   0.0555   0.1147        399.82370       1082.44775
    170        -11.02182   0.0536   0.1360        384.84332       1041.89111
    180        -29.17216   0.0543   0.1103        378.89297       1025.78174
    190        -47.90978   0.0549   0.1137        389.24689       1053.81299
    200        -20.60330   0.0530   0.1263        364.69565        987.34509
# Molecular dynamics simulation at 1000.00 K
#  Step   Current energy Av shift Mx shift   Kinetic energy    Kinetic temp.
      0        -20.63794   0.0000   0.0000        369.37006       1000.00018
     10        -15.79271   0.0542   0.1355        387.41583       1048.85571
     20        -38.79990   0.0557   0.1488        423.27408       1145.93518
     30         13.01628   0.0540   0.1238        385.10605       1042.60242
     40        -47.64781   0.0574   0.1270        434.13458       1175.33801
     50         -5.98447   0.0566   0.1601        447.94562       1212.72876
     60          2.57684   0.0553   0.1388        407.61218       1103.53357
     70         10.85612   0.0538   0.1542        394.56757       1068.21777
     80         11.56561   0.0562   0.1647        431.89600       1169.27747
     90          7.72392   0.0555   0.1299        417.12744       1129.29431
    100        -27.29884   0.0596   0.1919        484.51813       1311.74207
    110         47.98923   0.0552   0.1404        408.42862       1105.74390
    120         60.33258   0.0555   0.1463        405.11624       1096.77625
    130         44.62727   0.0553   0.1834        436.31638       1181.24475
    140         30.27551   0.0565   0.1462        436.21021       1180.95740
    150         19.86646   0.0573   0.1476        443.10342       1199.61951
    160        118.06958   0.0557   0.1513        417.37558       1129.96619
    170         19.07382   0.0600   0.1289        469.92441       1272.23230
    180         67.89461   0.0562   0.1314        410.53665       1111.45105
    190         28.32657   0.0596   0.1635        483.78024       1309.74438
    200         71.02850   0.0580   0.1485        453.77664       1228.51526
    210         20.22032   0.0549   0.1490        402.56851       1089.87878
    220         -3.68947   0.0570   0.1482        434.17145       1175.43787
    230         33.81183   0.0561   0.1480        424.51373       1149.29138
    240         14.59050   0.0566   0.1381        435.43079       1178.84729
    250         56.53883   0.0563   0.1218        416.19067       1126.75830
    260         69.20184   0.0550   0.1204        402.46512       1089.59888
    270         60.98323   0.0558   0.1269        417.33270       1129.85010
    280         21.59991   0.0566   0.1250        417.32126       1129.81909
    290          9.08131   0.0586   0.1364        449.98196       1218.24182
    300         51.36472   0.0571   0.1328        425.45166       1151.83069
    310         55.64778   0.0578   0.1187        434.35892       1175.94531
    320         36.18945   0.0578   0.1437        453.92371       1228.91333
    330         48.01140   0.0554   0.1415        421.03778       1139.88086
    340         43.60135   0.0582   0.1237        442.05814       1196.78955
    350         74.91360   0.0580   0.1456        448.84039       1215.15125
    360         37.19258   0.0589   0.1258        448.05371       1213.02148
    370        111.14188   0.0564   0.1402        420.77234       1139.16223
    380         77.56384   0.0604   0.1295        480.05069       1299.64722
    390         78.85703   0.0571   0.1257        429.84595       1163.72729
    400         75.59564   0.0612   0.1536        514.31232       1392.40417
    410          3.66766   0.0548   0.1434        412.58585       1116.99890
    420         44.50369   0.0552   0.1668        424.11182       1148.20325
    430         75.08318   0.0552   0.1452        408.41760       1105.71411
    440         35.98453   0.0561   0.1422        417.10446       1129.23218
    450         25.50238   0.0569   0.1170        432.43829       1170.74561
    460         20.80605   0.0590   0.1491        477.05847       1291.54639
    470         63.60953   0.0569   0.1258        427.66617       1157.82605
    480         28.25206   0.0592   0.1400        476.81653       1290.89136
    490         45.43401   0.0573   0.1611        454.47693       1230.41113
    500        -23.32991   0.0619   0.1462        508.81381       1377.51807
    510         40.40436   0.0608   0.1661        487.75790       1320.51306
    520         45.35397   0.0579   0.1524        435.33521       1178.58850
    530         37.03108   0.0628   0.1566        518.28149       1403.15002
    540        -21.70135   0.0642   0.1652        554.59528       1501.46277
    550         44.04695   0.0602   0.1500        482.73538       1306.91553
    560         93.01929   0.0609   0.1629        515.18707       1394.77246
    570        111.68408   0.0601   0.1601        477.38925       1292.44189
    580        104.88895   0.0605   0.1439        499.85437       1353.26196
    590         92.25191   0.0605   0.1486        487.78622       1320.58972
    600         92.78835   0.0609   0.1356        482.85373       1307.23596
# Molecular dynamics simulation at 800.00 K
#  Step   Current energy Av shift Mx shift   Kinetic energy    Kinetic temp.
      0         93.50998   0.0000   0.0000        369.37003       1000.00012
     10         32.73941   0.0579   0.1915        463.61386       1255.14758
     20         71.25478   0.0556   0.1284        409.44598       1108.49829
     30         31.12334   0.0599   0.1539        479.39563       1297.87378
     40         39.99261   0.0580   0.1261        432.00323       1169.56775
     50         31.17526   0.0592   0.1262        452.61905       1225.38123
     60         50.06621   0.0598   0.1358        462.31165       1251.62207
     70         59.65015   0.0567   0.1373        431.20544       1167.40796
     80         61.02911   0.0593   0.1463        458.95978       1242.54761
     90         47.11472   0.0590   0.1451        457.88275       1239.63171
    100         88.94595   0.0579   0.1464        440.58362       1192.79761
    110         86.17506   0.0594   0.1581        465.57028       1260.44434
    120         41.74809   0.0597   0.1199        466.68402       1263.45947
    130         25.02301   0.0625   0.1334        506.82907       1372.14478
    140         58.10419   0.0628   0.1395        493.91000       1337.16870
    150         45.79977   0.0594   0.1626        471.84747       1277.43860
    160         78.84361   0.0626   0.1382        515.82672       1396.50415
    170         88.92354   0.0615   0.1493        504.34619       1365.42273
    180         62.04352   0.0647   0.1550        549.48230       1487.62036
    190         39.94328   0.0661   0.1552        591.38812       1601.07251
    200        100.54037   0.0655   0.1505        555.17664       1503.03674
    210          7.04189   0.0556   0.1167        406.29919       1099.97888
    220         22.26974   0.0532   0.1210        369.98550       1001.66638
    230         16.65977   0.0531   0.1313        367.71478        995.51886
    240         -1.87155   0.0541   0.1398        390.28522       1056.62402
    250        -11.48505   0.0552   0.1436        405.65894       1098.24548
    260         -4.97319   0.0555   0.1195        412.61887       1117.08826
    270         35.38658   0.0550   0.1378        400.06940       1083.11292
    280         23.58411   0.0553   0.1377        403.00250       1091.05371
    290         92.10432   0.0511   0.1141        346.10199        937.00629
    300          3.02127   0.0596   0.1318        471.36655       1276.13660
    310         44.90729   0.0556   0.1225        408.84900       1106.88208
    320         21.81137   0.0562   0.1267        412.71094       1117.33752
    330          2.53603   0.0580   0.1490        449.35278       1216.53845
    340         -3.33598   0.0604   0.1522        487.03552       1318.55737
    350         42.98726   0.0565   0.1266        425.49362       1151.94421
    360         32.70215   0.0581   0.1341        445.36108       1205.73169
    370         83.59370   0.0577   0.1217        428.16907       1159.18750
    380         17.35236   0.0599   0.1280        466.64264       1263.34753
    390         67.58743   0.0574   0.1345        435.54935       1179.16821
    400         43.31329   0.0554   0.1224        411.79327       1114.85315
    410        -18.83238   0.0543   0.1504        386.39679       1046.09692
    420         -5.86081   0.0541   0.1228        375.29138       1016.03107
    430        -23.21312   0.0548   0.1175        395.12234       1069.71973
    440        -31.87225   0.0566   0.1250        412.51920       1116.81836
    450        -27.79936   0.0556   0.1564        405.85910       1098.78748
    460         -0.62556   0.0554   0.1403        398.65692       1079.28894
    470         16.50455   0.0540   0.1245        391.61029       1060.21143
    480         -7.34689   0.0555   0.1220        407.75003       1103.90674
    490        -10.55490   0.0578   0.1245        418.37573       1132.67383
    500          1.16486   0.0544   0.1260        388.07547       1050.64160
    510         -2.66577   0.0533   0.1160        382.05573       1034.34424
    520         22.88571   0.0533   0.1211        377.04205       1020.77069
    530        -51.81203   0.0606   0.1275        483.98685       1310.30371
    540         26.74925   0.0550   0.1227        399.13382       1080.57996
    550        -39.33092   0.0618   0.1373        497.99155       1348.21875
    560         41.26883   0.0560   0.1233        397.53659       1076.25586
    570         19.69801   0.0585   0.1281        447.12189       1210.49866
    580        -33.95745   0.0592   0.1368        464.48376       1257.50269
    590         32.95570   0.0559   0.1220        413.36545       1119.10950