# Conjugate gradients optimization
#  Step   Current energy Av shift Mx shift   Funcs         Gradient
      0      11648.79785   0.0000   0.0000       1           575958
     10        138.80867   0.0839   0.1991      21           250.67
     20         92.81224   0.0674   0.2121      41          162.593
     30         81.50480   0.0155   0.0552      61          16.8029
     40         79.18066   0.0121   0.0453      81          7.84407
     50         77.64240   0.0259   0.1124     101          15.5982
     60         76.38174   0.0210   0.0734     121           11.314
     70         75.56012   0.0068   0.0340     141          3.93682
     80         74.99674   0.0053   0.0347     161          2.85568
     90         74.21232   0.0051   0.0260     182          2.51257
    100         73.74309   0.0042   0.0169     202          2.37655
    110         73.52670   0.0068   0.0423     222          1.15756
    120         73.08424   0.0339   0.1461     242          8.58414
    130         72.48830   0.0031   0.0163     262          2.38326
    140         72.24538   0.0283   0.0817     283          13.2783
    149         71.54842   0.0084   0.0440     301          5.31496
# Conjugate gradients optimization
#  Step   Current energy Av shift Mx shift   Funcs         Gradient
      0        760.48065   0.0000   0.0000       1          3454.39
     10        745.97253   0.0102   0.0578      21          887.315
     20        741.86505   0.0030   0.0087      41          60.4951
     30        741.01538   0.0113   0.0302      63          262.378
     40        737.45618   0.0143   0.0416      83          347.701
     50        733.69299   0.0079   0.0501     103          361.526
     60        726.87616   0.0037   0.0218     123          323.291
     70        724.82581   0.0041   0.0250     143          131.564
     80        722.76569   0.0035   0.0241     163          264.701
     90        719.73486   0.0078   0.0420     183          645.874
    100        714.57849   0.0030   0.0152     203           348.54
    110        713.01013   0.0042   0.0114     223          60.1778
    120        711.46271   0.0094   0.0412     243          401.653
    130        707.49127   0.0087   0.0642     263          771.766
    140        704.93842   0.0036   0.0121     283          60.1687
    149        703.76117   0.0024   0.0087     301          52.3214
# Conjugate gradients optimization
#  Step   Current energy Av shift Mx shift   Funcs         Gradient
      0       3516.51758   0.0000   0.0000       1          1103.26
     10       3511.09937   0.0043   0.0220      21          6802.42
     20       3498.38086   0.0067   0.0257      41          3337.17
     30       3484.65527   0.0057   0.0368      61          6417.26
     40       3475.48315   0.0074   0.0371      82          20615.3
     50       3444.26733   0.0052   0.0294     102          7055.57
     60       3438.43335   0.0037   0.0135     122          1162.09
     70       3434.43774   0.0048   0.0184     142           1290.8
     80       3418.01001   0.0036   0.0226     162          6112.62
     90       3407.23071   0.0028   0.0135     182             3221
    100       3403.16528   0.0043   0.0229     202          1089.01
    110       3401.13770   0.0024   0.0078     223          605.278
    120       3399.10962   0.0018   0.0055     243          790.917
    130       3397.99072   0.0038   0.0105     264          639.275
    140       3397.15430   0.0012   0.0039     284          303.088
    148       3393.83936   0.0095   0.0344     301          2222.75
# Conjugate gradients optimization
#  Step   Current energy Av shift Mx shift   Funcs         Gradient
      0       6787.41016   0.0000   0.0000       1          11861.8
     10       6784.95215   0.0021   0.0061      21          1333.53
     20       6783.35791   0.0005   0.0022      41          1386.02
     22       6783.29932   0.0001   0.0007      45          146.992
# Conjugate gradients optimization
#  Step   Current energy Av shift Mx shift   Funcs         Gradient
      0       6783.32373   0.0000   0.0000       1          151.087
     10       6782.17920   0.0014   0.0037      21          403.258
     20       6777.83545   0.0080   0.0339      42          5567.49
     30       6774.47070   0.0034   0.0185      75          2495.79
     40       6772.77148   0.0009   0.0029      96          843.815
     48       6772.29688   0.0002   0.0008     113          154.899
# Conjugate gradients optimization
#  Step   Current energy Av shift Mx shift   Funcs         Gradient
      0       6772.09473   0.0000   0.0000       1          175.689
      4       6771.94629   0.0002   0.0009       9          136.758
# Conjugate gradients optimization
#  Step   Current energy Av shift Mx shift   Funcs         Gradient
      0       6771.74268   0.0000   0.0000       1          146.485
      1       6771.73877   0.0000   0.0002       5          101.939
# Conjugate gradients optimization
#  Step   Current energy Av shift Mx shift   Funcs         Gradient
      0       6771.73877   0.0000   0.0000       1          101.939
      1       6771.73828   0.0000   0.0000     301          101.939
# Conjugate gradients optimization
#  Step   Current energy Av shift Mx shift   Funcs         Gradient
      0       6771.73828   0.0000   0.0000       1          101.934
      1       6771.73828   0.0000   0.0000     301          101.934
# Conjugate gradients optimization
#  Step   Current energy Av shift Mx shift   Funcs         Gradient
      0       6771.73828   0.0000   0.0000       1          101.917
      2       6771.73877   0.0000   0.0000     301          101.915
# Conjugate gradients optimization
#  Step   Current energy Av shift Mx shift   Funcs         Gradient
      0       6771.73877   0.0000   0.0000       1          101.913
      2       6771.73926   0.0000   0.0000     301          101.911
# Conjugate gradients optimization
#  Step   Current energy Av shift Mx shift   Funcs         Gradient
      0       6771.73926   0.0000   0.0000       1           101.46
      1       6771.73975   0.0000   0.0000     301           101.46
# Conjugate gradients optimization
#  Step   Current energy Av shift Mx shift   Funcs         Gradient
      0       6771.73926   0.0000   0.0000       1           101.46
      1       6771.73975   0.0000   0.0000     301           101.46
# Conjugate gradients optimization
#  Step   Current energy Av shift Mx shift   Funcs         Gradient
      0       6771.73926   0.0000   0.0000       1           101.46
      1       6771.73975   0.0000   0.0000     301           101.46
# Conjugate gradients optimization
#  Step   Current energy Av shift Mx shift   Funcs         Gradient
      0       6771.73926   0.0000   0.0000       1           101.46
      1       6771.73975   0.0000   0.0000     301           101.46
# Conjugate gradients optimization
#  Step   Current energy Av shift Mx shift   Funcs         Gradient
      0       6771.73926   0.0000   0.0000       1           101.46
      1       6771.73975   0.0000   0.0000     301           101.46
# Conjugate gradients optimization
#  Step   Current energy Av shift Mx shift   Funcs         Gradient
      0       6771.73926   0.0000   0.0000       1           101.46
      1       6771.73975   0.0000   0.0000     301           101.46
# Conjugate gradients optimization
#  Step   Current energy Av shift Mx shift   Funcs         Gradient
      0       6771.73926   0.0000   0.0000       1           101.46
      1       6771.73975   0.0000   0.0000     301           101.46
# Conjugate gradients optimization
#  Step   Current energy Av shift Mx shift   Funcs         Gradient
      0       6771.73926   0.0000   0.0000       1           101.46
      1       6771.73975   0.0000   0.0000     301           101.46
# Conjugate gradients optimization
#  Step   Current energy Av shift Mx shift   Funcs         Gradient
      0       6771.73926   0.0000   0.0000       1           101.46
      1       6771.73975   0.0000   0.0000     301           101.46
# Conjugate gradients optimization
#  Step   Current energy Av shift Mx shift   Funcs         Gradient
      0       6771.73926   0.0000   0.0000       1           101.46
      1       6771.73975   0.0000   0.0000     301           101.46
# Conjugate gradients optimization
#  Step   Current energy Av shift Mx shift   Funcs         Gradient
      0       6771.73926   0.0000   0.0000       1           101.46
      1       6771.73975   0.0000   0.0000     301           101.46
# Conjugate gradients optimization
#  Step   Current energy Av shift Mx shift   Funcs         Gradient
      0  196198000.00000   0.0000   0.0000       1      2.77012e+18
     10      17612.40039   0.0386   0.3280      21      9.39394e+07
     20       7436.92871   0.0459   0.2198      41       1.5306e+06
     30       6457.09912   0.0167   0.0951      61           294011
     40       6038.83252   0.0086   0.0358      81           119826
     50       5907.34082   0.0107   0.0400     101          48275.2
     60       5769.57129   0.0096   0.0513     121          68630.3
     70       5707.53711   0.0077   0.0338     141          47312.1
     80       5672.82861   0.0039   0.0259     162          30953.4
     90       5636.25098   0.0128   0.0471     182          50591.9
    100       5610.12500   0.0050   0.0215     203          16379.2
    110       5566.22510   0.0090   0.0313     224            33183
    120       5458.61279   0.0205   0.0892     245           302827
    130       5380.65674   0.0202   0.0856     265           106643
    140       5283.23584   0.0134   0.0857     286          75651.2
    148       5221.80664   0.0057   0.0318     301          60223.5
# Conjugate gradients optimization
#  Step   Current energy Av shift Mx shift   Funcs         Gradient
      0       7432.09277   0.0000   0.0000       1      1.38929e+07
     10       5510.35547   0.0237   0.0995      21           648774
     20       5035.56201   0.0176   0.0916      41           243020
     30       4819.69678   0.0081   0.0405      61           116295
     40       4714.65771   0.0091   0.0555      82          47370.9
     50       4689.14160   0.0039   0.0130     102          18690.1
     60       4651.35498   0.0090   0.0289     123          21145.4
     70       4629.09619   0.0068   0.0268     143          14451.7
     80       4616.90674   0.0066   0.0236     163          13347.8
     90       4579.99561   0.0039   0.0191     183          17975.8
    100       4562.91406   0.0023   0.0068     203          3685.28
    110       4556.66943   0.0057   0.0191     223          5312.83
    120       4552.19971   0.0050   0.0131     243          3048.62
    130       4545.12500   0.0061   0.0229     263          4362.18
    140       4533.41211   0.0036   0.0134     283          5485.45
    149       4529.59717   0.0035   0.0155     301          2212.28
# Conjugate gradients optimization
#  Step   Current energy Av shift Mx shift   Funcs         Gradient
      0       6156.51074   0.0000   0.0000       1      4.41958e+06
     10       5115.46826   0.0223   0.0848      21           425693
     20       4580.72217   0.0098   0.0434      41           101071
     30       4331.00732   0.0108   0.0728      61           208238
     40       4233.60498   0.0094   0.0370      81          28396.1
     50       4192.86279   0.0065   0.0202     102          13361.2
     60       4120.11084   0.0074   0.0345     123          45241.4
     70       4093.65552   0.0010   0.0034     144          3680.29
     80       4076.80591   0.0043   0.0157     166          9038.39
     90       4043.82373   0.0034   0.0111     186          6220.73
    100       4023.48438   0.0113   0.0529     206          37080.7
    110       3990.66260   0.0099   0.0438     226          86886.5
    120       3963.98047   0.0024   0.0084     246          5108.45
    130       3959.36035   0.0052   0.0150     268          2714.31
    134       3959.27856   0.0035   0.0092     301          1131.43
# Conjugate gradients optimization
#  Step   Current energy Av shift Mx shift   Funcs         Gradient
      0       4385.77588   0.0000   0.0000       1           326791
     10       4306.04492   0.0013   0.0052      21          4470.18
     20       4290.66504   0.0010   0.0025      56          1727.37
     28       4283.77832   0.0013   0.0062     301          3884.12
# Molecular dynamics simulation at 150.00 K
#  Step   Current energy Av shift Mx shift   Kinetic energy    Kinetic temp.
      0       4281.43604   0.0000   0.0000         56.82966        153.85565
     10       4346.56494   0.0950   0.3393       1391.74683       3767.89380
     20       3216.14722   0.1643   0.4033       3850.95068      10425.72754
     30       2372.82739   0.1165   0.3464       1955.59546       5294.40820
     40       2866.27856   0.1367   0.4119       2713.99365       7347.62891
     50       1980.90369   0.1045   0.4218       1768.12500       4786.86719
     60       2140.44482   0.1102   0.3999       1737.59509       4704.21289
     70       1155.27222   0.0916   0.4116       1499.41504       4059.38525
     80       1572.57202   0.0913   0.5595       1599.65320       4330.76123
     90        933.55908   0.0810   0.4207       1297.60669       3513.02686
    100       1652.88635   0.0753   0.4184       1098.05444       2972.77661
    110        846.06720   0.0734   0.4884       1341.54211       3631.97388
    120       1871.87524   0.0722   0.4721       1240.67139       3358.88525
    130        912.41077   0.0748   0.5075       1467.80176       3973.79810
    140       1113.53125   0.0667   0.5061       1142.52271       3093.16602
    150        431.91476   0.0639   0.3230        850.47424       2302.49951
    160        722.94287   0.0621   0.4092        913.25623       2472.46997
    170        624.71326   0.0572   0.5054        925.43756       2505.44873
    180        643.14526   0.0599   0.4375        931.86121       2522.83960
    190        268.86652   0.0513   0.3128        622.19904       1684.48730
    200        439.28433   0.0519   0.4875        801.92145       2171.05200
# Molecular dynamics simulation at 250.00 K
#  Step   Current energy Av shift Mx shift   Kinetic energy    Kinetic temp.
      0        439.28433   0.0000   0.0000         55.40550        150.00000
     10        110.94843   0.0480   0.4310        748.37921       2026.09644
     20        837.15198   0.0481   0.4748        795.53235       2153.75464
     30       1187.37012   0.0557   0.5500       1339.33691       3626.00366
     40        994.96448   0.0483   0.5283       1033.50525       2798.02173
     50       1282.01367   0.0510   0.4666        976.83417       2644.59546
     60        799.84167   0.0436   0.3719        634.19861       1716.97388
     70        550.27832   0.0420   0.4216        586.04303       1586.60168
     80        733.77344   0.0461   0.4981        980.70880       2655.08521
     90        696.52753   0.0598   0.6755       1941.43127       5256.06152
    100        857.09851   0.0478   0.5135        934.24646       2529.29712
    110        543.13855   0.0492   0.4662        770.77380       2086.72559
    120       1075.81372   0.0466   0.4608        827.22095       2239.54565
    130        306.88651   0.0495   0.4217        814.50208       2205.11182
    140        548.86737   0.0463   0.4486        747.16772       2022.81653
    150        605.05054   0.0467   0.4651        806.79156       2184.23706
    160        889.27283   0.0525   0.4933       1215.52893       3290.81665
    170        652.35870   0.0484   0.4792        809.43170       2191.38452
    180        631.36157   0.0475   0.4389        884.87531       2395.63403
    190        531.22748   0.0411   0.2902        446.00671       1207.47961
    200        445.60699   0.0507   0.5598       1165.96021       3156.61865
# Molecular dynamics simulation at 400.00 K
#  Step   Current energy Av shift Mx shift   Kinetic energy    Kinetic temp.
      0        445.60699   0.0000   0.0000         92.34246        249.99991
     10        231.95612   0.0444   0.3811        782.61389       2118.78052
     20        412.55490   0.0410   0.4267        645.17432       1746.68848
     30        570.63654   0.0409   0.3858        566.74139       1534.34607
     40        474.75314   0.0429   0.3668        645.51996       1747.62427
     50        360.01331   0.0394   0.3571        521.45007       1411.72839
     60        812.04492   0.0451   0.4420        791.50085       2142.84033
     70       1449.88098   0.0509   0.4308        851.21814       2304.51367
     80       1532.11938   0.0641   0.5193       1556.06384       4212.75098
     90       1173.35742   0.0636   0.5100       1565.53418       4238.39014
    100       1183.78406   0.0602   0.5301       1357.06641       3674.00293
    110        672.58960   0.0479   0.3153        597.75256       1618.30298
    120        840.82202   0.0443   0.3522        537.42236       1454.97034
    130       1461.81604   0.0578   0.5878       1318.12292       3568.57080
    140       1170.39282   0.0547   0.4567       1153.50806       3122.90698
    150       1882.51294   0.0515   0.5561       1055.99512       2858.90894
    160        972.57758   0.0660   0.6755       2123.49536       5748.96582
    170       1094.46167   0.0522   0.5324       1070.63904       2898.55444
    180       1211.95569   0.0538   0.4482       1270.37732       3439.30859
    190        703.06128   0.0539   0.4235       1032.62964       2795.65112
    200        650.82709   0.0487   0.5256        868.84900       2352.24585
# Molecular dynamics simulation at 700.00 K
#  Step   Current energy Av shift Mx shift   Kinetic energy    Kinetic temp.
      0        650.82709   0.0000   0.0000        147.74799        399.99997
     10       1183.22449   0.0484   0.4056        826.37799       2237.26343
     20       2057.23853   0.0551   0.5229       1252.36584       3390.54590
     30       1527.64075   0.0437   0.4553        601.38531       1628.13806
     40       1404.32581   0.0512   0.5632       1188.46960       3217.55859
     50        926.42487   0.0481   0.4280        854.64807       2313.79956
     60       1060.38257   0.0560   0.5243       1250.94836       3386.70825
     70        272.93643   0.0480   0.5053        990.50842       2681.61597
     80        731.25452   0.0442   0.4550        683.06189       1849.26208
     90        704.16919   0.0460   0.5023        858.02960       2322.95435
    100        429.06949   0.0473   0.5919        875.97266       2371.53174
    110        261.18259   0.0409   0.3332        462.07986       1250.99463
    120        603.86407   0.0467   0.4105        823.96155       2230.72144
    130       1026.47461   0.0480   0.6755       1327.32495       3593.48364
    140       1023.24329   0.0418   0.5218        724.34131       1961.01831
    150        702.26184   0.0372   0.3287        434.86536       1177.31641
    160        134.60315   0.0470   0.3941        833.28448       2255.96167
    170        123.63885   0.0352   0.2942        407.26031       1102.58093
    180        733.29486   0.0396   0.3777        574.70807       1555.91443
    190        460.95847   0.0369   0.3722        499.79492       1353.10107
    200        326.33658   0.0400   0.4295        626.96863       1697.40002
# Molecular dynamics simulation at 1000.00 K
#  Step   Current energy Av shift Mx shift   Kinetic energy    Kinetic temp.
      0        326.33658   0.0000   0.0000        258.55896        699.99994
     10        271.19635   0.0372   0.3434        482.56976       1306.46716
     20        310.70621   0.0495   0.4306       1061.34448       2873.39136
     30        927.93445   0.0413   0.3929        714.28546       1933.79407
     40        600.76294   0.0465   0.4175        841.87292       2279.21313
     50        503.73145   0.0422   0.4120        619.69403       1677.70544
     60        230.98734   0.0449   0.3903        637.31836       1725.42004
     70        690.88245   0.0462   0.4808        790.11261       2139.08179
     80        609.84241   0.0505   0.5899        984.37921       2665.02222
     90        846.95874   0.0489   0.5540        982.47308       2659.86182
    100        509.15918   0.0487   0.5364        878.77521       2379.11914
    110        326.61127   0.0470   0.3875        766.83539       2076.06299
    120        350.00006   0.0476   0.3801        745.06036       2017.11133
    130        475.96594   0.0425   0.2842        447.64020       1211.90198
    140        668.37341   0.0470   0.4248        588.62866       1593.60181
    150        714.74689   0.0422   0.3522        523.99243       1418.61133
    160       1112.65942   0.0586   0.5192       1432.57544       3878.42944
    170       1593.63477   0.0465   0.4617        893.03992       2417.73828
    180        525.43616   0.0516   0.5116        994.23010       2691.69165
    190        387.56656   0.0453   0.3988        761.38342       2061.30298
    200        425.26474   0.0511   0.4969        884.32513       2394.14453
# Molecular dynamics simulation at 1000.00 K
#  Step   Current energy Av shift Mx shift   Kinetic energy    Kinetic temp.
      0        425.26474   0.0000   0.0000        369.36996        999.99994
     10        600.99084   0.0414   0.2794        468.40485       1268.11829
     20        666.22272   0.0526   0.5345       1046.07886       2832.06250
     30       1755.97485   0.0575   0.4693       1268.65039       3434.63306
     40        837.96680   0.0641   0.6475       1550.82239       4198.56104
     50       1438.50562   0.0653   0.5144       1416.46887       3834.82397
     60       1113.57568   0.0687   0.4632       1433.36646       3880.57104
     70       1813.48853   0.0780   0.5000       1796.34070       4863.25586
     80       1265.12585   0.0755   0.4495       1687.48816       4568.55811
     90       1708.04517   0.0803   0.4589       1630.27612       4413.66699
    100       1384.24731   0.0910   0.5440       2230.08984       6037.55029
    110       1970.89600   0.0816   0.4091       1513.79285       4098.31055
    120       1980.24341   0.0914   0.4069       1812.14258       4906.03662
    130       1786.77563   0.0987   0.4390       2060.89233       5579.47949
    140       1399.31360   0.1006   0.5227       2039.92102       5522.70361
    150       1839.66663   0.1004   0.4320       1990.17090       5388.01465
    160       1866.57983   0.0977   0.4282       1828.26892       4949.69531
    170       2028.57642   0.1061   0.6003       2277.76709       6166.62744
    180       2271.88721   0.1000   0.3479       1906.97437       5162.77588
    190       2092.19165   0.1135   0.4521       2353.39404       6371.37305
    200       1872.30627   0.1143   0.6183       2588.78369       7008.64648
    210       1206.06519   0.0883   0.4538       1431.00195       3874.16968
    220       1305.30835   0.0818   0.3602       1213.03064       3284.05298
    230       1527.29138   0.0896   0.5440       1555.95447       4212.45508
    240       1283.74854   0.0988   0.5162       1922.16553       5203.90283
    250       1216.49573   0.0990   0.4777       2005.75769       5430.21289
    260       1588.88586   0.0899   0.4280       1441.71936       3903.18506
    270       1766.84167   0.1053   0.6755       2342.11841       6340.84668
    280       2604.70947   0.0993   0.3353       1657.01733       4486.06396
    290       1696.70154   0.1070   0.5411       2313.58252       6263.59082
    300       1564.61426   0.1109   0.4347       2421.49438       6555.74219
    310       1619.26050   0.1108   0.4449       2316.20947       6270.70312
    320       1968.71326   0.1054   0.3650       1866.23999       5052.49512
    330       2164.25977   0.1155   0.3308       2249.94751       6091.31104
    340       1810.28699   0.1246   0.4972       2828.10205       7656.55615
    350       3362.43701   0.1278   0.5539       3150.62012       8529.71387
    360       2907.01172   0.1194   0.5702       2738.68555       7414.47803
    370       3122.43994   0.1277   0.5307       2937.25513       7952.06787
    380       3265.50464   0.1261   0.4456       2721.40283       7367.68799
    390       2366.40137   0.1335   0.5329       3069.86377       8311.08105
    400       3093.99438   0.1425   0.5772       3682.66602       9970.12793
    410       1404.22437   0.1122   0.3812       2294.87695       6212.94922
    420       1704.66064   0.1091   0.4184       2052.68042       5557.24756
    430       2034.66785   0.1132   0.3917       2322.77954       6288.49023
    440       2196.66821   0.1200   0.5918       2636.45972       7137.72070
    450       3012.94702   0.1222   0.5745       2967.36914       8033.59570
    460       2386.12793   0.1271   0.4177       2721.06421       7366.77148
    470       2502.64697   0.1199   0.4775       2479.11108       6711.72852
    480       2340.21777   0.1363   0.5352       3244.20850       8783.08691
    490       2434.71191   0.1446   0.5093       3599.93921       9746.16113
    500       3144.84424   0.1383   0.4529       3146.02637       8517.27637
    510       2641.72681   0.1385   0.4555       3348.61353       9065.74316
    520       2845.21289   0.1329   0.5203       3070.86230       8313.78418
    530       3781.34937   0.1425   0.6664       3952.78906      10701.43555
    540       2939.92358   0.1564   0.4512       3985.71094      10790.56543
    550       3665.48975   0.1470   0.4727       3608.13672       9768.35352
    560       3805.12500   0.1468   0.4568       3400.05811       9205.02051
    570       3260.67358   0.1566   0.4106       3890.71362      10533.37793
    580       4484.13525   0.1585   0.5131       4021.99048      10888.78516
    590       4331.01172   0.1560   0.4388       4065.64795      11006.97949
    600       3963.24902   0.1690   0.5332       4844.77832      13116.32910
# Molecular dynamics simulation at 800.00 K
#  Step   Current energy Av shift Mx shift   Kinetic energy    Kinetic temp.
      0       3963.24902   0.0000   0.0000        369.36984        999.99963
     10       2720.95825   0.1451   0.4729       3681.36060       9966.59375
     20       3564.91797   0.1480   0.4715       3899.59229      10557.41504
     30       4181.79297   0.1418   0.5373       3551.54224       9615.13477
     40       3750.76416   0.1507   0.4687       3714.74170      10056.96680
     50       3765.03662   0.1450   0.3942       3373.76880       9133.84668
     60       4114.02930   0.1570   0.5255       4169.04688      11286.91309
     70       3676.77637   0.1493   0.4432       3793.10449      10269.11914
     80       3447.13794   0.1631   0.5839       4288.85059      11611.25879
     90       3825.83594   0.1802   0.6755       5378.91113      14562.39355
    100       5177.91016   0.1825   0.5546       5406.10352      14636.01172
    110       4958.89990   0.1825   0.4697       4999.26904      13534.58398
    120       4633.80811   0.1973   0.5661       6147.71289      16643.78125
    130       5139.47754   0.1807   0.4182       4842.98047      13111.46191
    140       5417.71143   0.1870   0.4340       5349.63672      14483.13867
    150       4883.81885   0.2056   0.5235       6503.16748      17606.10742
    160       6115.78857   0.2081   0.5523       6361.26807      17221.94141
    170       6439.77490   0.2088   0.5551       6351.32666      17195.02734
    180       7418.28418   0.2070   0.5808       6533.45166      17688.09570
    190       7310.15967   0.2185   0.5875       7238.44287      19596.72656
    200       5898.04590   0.2133   0.5956       6654.33350      18015.36133
    210       3828.45459   0.1611   0.5547       3977.73120      10768.96191
    220       3847.75488   0.1781   0.5609       4966.24658      13445.18164
    230       3700.57910   0.1749   0.5487       4884.81152      13224.71191
    240       4421.33887   0.1863   0.6382       5622.58350      15222.09082
    250       4440.35645   0.1855   0.4570       4910.73730      13294.90039
    260       5821.11084   0.1867   0.5471       5143.27344      13924.44922
    270       5248.64844   0.1946   0.4991       5704.25586      15443.20312
    280       6079.37695   0.2216   0.6755       7553.87305      20450.69531
    290       5852.28809   0.2147   0.5515       6369.98975      17245.55273
    300       5796.44043   0.2194   0.5618       7010.36328      18979.24414
    310       6787.29980   0.2189   0.5074       6873.76807      18609.43945
    320       5882.82910   0.2297   0.6004       7485.43945      20265.42383
    330       5947.08154   0.2272   0.5606       6962.66162      18850.10156
    340       5831.47754   0.2338   0.5007       7497.15576      20297.14453
    350       6209.23828   0.2332   0.6311       7899.20459      21385.61523
    360       5606.96680   0.2384   0.5851       8049.66699      21792.96484
    370       5874.46191   0.2201   0.5427       6789.28711      18380.72266
    380       6087.10205   0.2244   0.4865       6715.18311      18180.09961
    390       6642.51318   0.2254   0.5057       6924.76807      18747.51172
    400       6313.03223   0.2303   0.4774       7005.19043      18965.24023
    410       4520.30566   0.1831   0.4383       4836.86133      13094.89551
    420       4402.51709   0.1851   0.6361       5038.54834      13640.92480
    430       6088.37549   0.2037   0.5676       6114.31201      16553.35352
    440       6337.43701   0.2281   0.6755       7882.32568      21339.91992
    450       5772.45947   0.2139   0.6362       6398.11133      17321.68750
    460       6876.46631   0.2280   0.6755       7871.26074      21309.96289
    470       6925.34424   0.2170   0.5967       6509.10400      17622.17969
    480       6731.36621   0.2142   0.5385       6490.15625      17570.88086
    490       6827.57910   0.2282   0.5526       7450.93994      20172.02344
    500       6651.27979   0.2384   0.6163       7930.06348      21469.16016