# Conjugate gradients optimization
#  Step   Current energy Av shift Mx shift   Funcs         Gradient
      0      12443.52539   0.0000   0.0000       1           649560
     10        125.59081   0.0909   0.3358      21           285.95
     20         94.63931   0.0330   0.0998      41          59.1109
     30         88.02647   0.0142   0.0403      61          20.4339
     40         84.97013   0.0106   0.0382      81          10.1127
     50         83.50662   0.0127   0.0532     101          10.3961
     60         82.03519   0.0123   0.0623     121          13.3164
     70         80.88595   0.0104   0.0438     141          8.57106
     80         79.96914   0.0056   0.0322     161          3.63245
     90         79.55524   0.0227   0.0780     182          7.64043
    100         78.90823   0.0055   0.0225     203          2.32318
    110         78.43172   0.0059   0.0280     223          2.79622
    120         78.04387   0.0044   0.0193     243          2.46686
    130         77.69895   0.0033   0.0132     263          0.85907
    140         77.49903   0.0038   0.0130     285          1.63719
    148         77.22842   0.0042   0.0151     301          4.48228
# Conjugate gradients optimization
#  Step   Current energy Av shift Mx shift   Funcs         Gradient
      0        878.27759   0.0000   0.0000       1          4361.33
     10        858.05933   0.0062   0.0195      21          557.269
     20        850.40179   0.0088   0.0350      41          723.623
     30        838.70947   0.0049   0.0155      61           341.68
     40        835.99469   0.0056   0.0268      81          255.407
     50        832.93939   0.0027   0.0094     101          127.879
     60        829.54419   0.0151   0.0542     121          1178.33
     70        817.50195   0.0094   0.0624     141          847.365
     80        813.48224   0.0145   0.0447     161          564.618
     90        810.82483   0.0035   0.0147     181          127.897
    100        807.07574   0.0106   0.0847     201          1061.23
    110        802.34576   0.0022   0.0132     222          64.6963
    120        801.09442   0.0019   0.0093     243          103.763
    130        800.56317   0.0139   0.0611     275           194.01
    140        798.39911   0.0053   0.0341     295          170.267
    143        797.79700   0.0035   0.0135     301          176.403
# Conjugate gradients optimization
#  Step   Current energy Av shift Mx shift   Funcs         Gradient
      0       4003.48560   0.0000   0.0000       1          9038.18
     10       3992.09595   0.0032   0.0253      21          1761.43
     20       3988.53979   0.0026   0.0121      41          678.874
     30       3986.47656   0.0040   0.0143      61          844.174
     40       3983.48462   0.0258   0.0733      81          11409.4
     50       3974.97827   0.0036   0.0139     101          1690.33
     60       3967.63477   0.0040   0.0126     122          1378.95
     70       3952.57031   0.0046   0.0258     142          6847.63
     80       3923.05786   0.0071   0.0623     162          22499.9
     90       3899.15063   0.0065   0.0492     182          24621.6
    100       3887.35254   0.0022   0.0105     202          1183.89
    110       3879.65210   0.0042   0.0164     223          4735.36
    120       3871.69360   0.0135   0.0608     243          7116.24
    130       3865.08447   0.0024   0.0125     264          1316.31
    140       3860.79736   0.0067   0.0500     284          1919.23
    149       3855.38330   0.0098   0.0603     301          2295.33
# Conjugate gradients optimization
#  Step   Current energy Av shift Mx shift   Funcs         Gradient
      0       7711.95947   0.0000   0.0000       1          18370.7
     10       7706.65820   0.0014   0.0075      22          2624.05
     20       7703.22314   0.0027   0.0089      42          3295.01
     30       7689.53467   0.0107   0.0284      62          7713.96
     40       7661.24805   0.0031   0.0091      83           9079.5
     50       7647.01465   0.0110   0.0334     104          23051.1
     60       7632.80908   0.0125   0.0451     124            20313
     70       7622.95654   0.0062   0.0234     144          6428.81
     80       7610.10889   0.0252   0.0827     164          15019.5
     90       7573.64355   0.0104   0.0335     184          30619.3
    100       7548.95215   0.0045   0.0188     205          17424.4
    110       7507.68359   0.0057   0.0543     228           118682
    120       7458.43506   0.0024   0.0089     248          7179.95
    130       7452.59668   0.0030   0.0094     268          5269.76
    140       7448.16650   0.0010   0.0064     289          2619.91
    146       7461.02832   0.0027   0.0301     301          26615.9
# Conjugate gradients optimization
#  Step   Current energy Av shift Mx shift   Funcs         Gradient
      0       7444.79443   0.0000   0.0000       1          26615.9
     10       7436.59424   0.0028   0.0137      21          2143.43
     20       7397.26807   0.0031   0.0157      41          16435.3
     30       7379.80225   0.0028   0.0163      61          45433.5
     40       7367.11035   0.0008   0.0025      93          1088.72
     50       7362.48242   0.0140   0.0633     116          41784.6
     60       7352.51416   0.0016   0.0099     136          2743.99
     70       7341.60010   0.0057   0.0186     161           164394
     80       7299.34668   0.0079   0.0371     181          24242.1
     90       7282.10645   0.0042   0.0290     201          9908.42
    100       7277.07812   0.0035   0.0165     221           4554.9
    110       7272.65771   0.0037   0.0333     242          13176.9
    120       7270.02734   0.0017   0.0088     262          1788.78
    130       7268.47070   0.0021   0.0083     283          1203.29
    133       7268.35303   0.0060   0.0245     301          4367.86
# Conjugate gradients optimization
#  Step   Current energy Av shift Mx shift   Funcs         Gradient
      0       7268.61963   0.0000   0.0000       1          1385.18
     10       7267.74609   0.0039   0.0215      22          4348.77
     20       7264.79590   0.0012   0.0037      42          2186.42
     30       7263.36816   0.0019   0.0094      62          946.439
     40       7261.27002   0.0050   0.0260      82          2067.15
     50       7259.07178   0.0042   0.0106     102          1758.44
     60       7255.85791   0.0170   0.0403     122          2928.28
     70       7249.37305   0.0225   0.0567     142          5306.55
     80       7245.60596   0.0022   0.0080     162          1490.02
     90       7242.42725   0.0040   0.0162     182          7248.57
    100       7235.03076   0.0056   0.0279     203            84292
    110       7220.34082   0.0022   0.0122     223          2740.09
    120       7218.38330   0.0021   0.0158     244          2368.51
    123       7218.19189   0.0001   0.0008     250          187.206
# Conjugate gradients optimization
#  Step   Current energy Av shift Mx shift   Funcs         Gradient
      0       7217.38525   0.0000   0.0000       1          207.544
# Conjugate gradients optimization
#  Step   Current energy Av shift Mx shift   Funcs         Gradient
      0       7217.16748   0.0000   0.0000       1          246.517
      1       7217.15088   0.0002   0.0010       4          308.786
# Conjugate gradients optimization
#  Step   Current energy Av shift Mx shift   Funcs         Gradient
      0       7217.15088   0.0000   0.0000       1          308.786
      2       7217.12207   0.0000   0.0003       7          52.7536
# Conjugate gradients optimization
#  Step   Current energy Av shift Mx shift   Funcs         Gradient
      0       7217.05322   0.0000   0.0000       1          52.4848
      1       7217.03955   0.0001   0.0007       4           106.25
# Conjugate gradients optimization
#  Step   Current energy Av shift Mx shift   Funcs         Gradient
      0       7217.00146   0.0000   0.0000       1          124.692
      1       7217.00146   0.0001   0.0006       5          58.8712
# Conjugate gradients optimization
#  Step   Current energy Av shift Mx shift   Funcs         Gradient
      0       7216.93262   0.0000   0.0000       1          56.2185
      1       7216.93066   0.0001   0.0005       5           64.474
# Conjugate gradients optimization
#  Step   Current energy Av shift Mx shift   Funcs         Gradient
      0       7216.93066   0.0000   0.0000       1           64.474
      1       7216.92188   0.0001   0.0005       5          66.0417
# Conjugate gradients optimization
#  Step   Current energy Av shift Mx shift   Funcs         Gradient
      0       7216.92188   0.0000   0.0000       1          66.0417
      1       7216.92236   0.0000   0.0000     301          66.0417
# Conjugate gradients optimization
#  Step   Current energy Av shift Mx shift   Funcs         Gradient
      0       7216.92188   0.0000   0.0000       1          66.0417
      1       7216.92236   0.0000   0.0000     301          66.0417
# Conjugate gradients optimization
#  Step   Current energy Av shift Mx shift   Funcs         Gradient
      0       7216.92188   0.0000   0.0000       1          66.0417
      1       7216.92236   0.0000   0.0000     301          66.0417
# Conjugate gradients optimization
#  Step   Current energy Av shift Mx shift   Funcs         Gradient
      0       7216.92188   0.0000   0.0000       1          66.0417
      1       7216.92236   0.0000   0.0000     301          66.0417
# Conjugate gradients optimization
#  Step   Current energy Av shift Mx shift   Funcs         Gradient
      0       7216.92188   0.0000   0.0000       1          66.0417
      1       7216.92236   0.0000   0.0000     301          66.0417
# Conjugate gradients optimization
#  Step   Current energy Av shift Mx shift   Funcs         Gradient
      0       7216.92188   0.0000   0.0000       1          66.0417
      1       7216.92236   0.0000   0.0000     301          66.0417
# Conjugate gradients optimization
#  Step   Current energy Av shift Mx shift   Funcs         Gradient
      0       7216.92188   0.0000   0.0000       1          66.0417
      1       7216.92236   0.0000   0.0000     301          66.0417
# Conjugate gradients optimization
#  Step   Current energy Av shift Mx shift   Funcs         Gradient
      0       7216.92188   0.0000   0.0000       1          66.0417
      1       7216.92236   0.0000   0.0000     301          66.0417
# Conjugate gradients optimization
#  Step   Current energy Av shift Mx shift   Funcs         Gradient
      0       7216.92188   0.0000   0.0000       1          66.0417
      1       7216.92236   0.0000   0.0000     301          66.0417
# Conjugate gradients optimization
#  Step   Current energy Av shift Mx shift   Funcs         Gradient
      0   79789208.00000   0.0000   0.0000       1      8.01887e+17
     10      21612.55859   0.0373   0.2074      22      8.67286e+08
     20       9846.61523   0.0645   0.2286      42      2.34335e+06
     30       8216.66211   0.0246   0.0912      62           549364
     40       7812.09863   0.0134   0.0495      82           200628
     50       7655.72461   0.0120   0.0321     102          67914.8
     60       7466.18945   0.0127   0.0368     123           189374
     70       7306.78760   0.0106   0.0389     143            61760
     80       7200.16406   0.0114   0.0745     163          44953.4
     90       7121.61572   0.0068   0.0459     183            34691
    100       7104.12891   0.0108   0.0286     203          20772.1
    110       7072.06592   0.0031   0.0110     223          4690.69
    120       7044.99512   0.0035   0.0129     243          8840.94
    130       7035.67041   0.0029   0.0079     264          4597.46
    140       7027.55127   0.0105   0.0328     284          13588.7
    149       7016.60449   0.0033   0.0095     301             5092
# Conjugate gradients optimization
#  Step   Current energy Av shift Mx shift   Funcs         Gradient
      0      12445.20117   0.0000   0.0000       1      6.51176e+07
     10       8711.48730   0.0194   0.0808      21           456596
     20       8374.94922   0.0134   0.0693      42           354583
     30       8052.14209   0.0111   0.0671      62           152171
     40       7936.20557   0.0050   0.0250      82          24629.6
     50       7879.11084   0.0067   0.0242     102          18423.6
     60       7835.22705   0.0040   0.0143     122          20813.2
     70       7816.80273   0.0045   0.0104     142          6388.06
     80       7802.78223   0.0093   0.0229     162          9325.44
     90       7789.53906   0.0028   0.0088     182          4342.05
    100       7774.45410   0.0059   0.0208     203          14486.4
    110       7726.50342   0.0025   0.0148     224          37024.7
    120       7705.28076   0.0062   0.0258     244          10390.1
    130       7693.46631   0.0034   0.0157     264          4372.58
    140       7665.99414   0.0030   0.0162     284          12049.1
    149       7657.63574   0.0050   0.0207     301           4165.1
# Conjugate gradients optimization
#  Step   Current energy Av shift Mx shift   Funcs         Gradient
      0      12041.21191   0.0000   0.0000       1      3.35609e+07
     10       9832.95117   0.0171   0.0673      21           444205
     20       9424.35547   0.0141   0.0752      41           281743
     30       9158.86328   0.0101   0.0635      61           168277
     40       8915.66113   0.0119   0.0346      81           199460
     50       8661.85938   0.0138   0.0666     101           125217
     60       8506.43652   0.0098   0.0326     121          68983.3
     70       8434.77344   0.0037   0.0122     141          17463.9
     80       8260.75684   0.0096   0.1122     162           330486
     90       7544.01465   0.0435   0.3805     183           870906
    100       6780.22754   0.0345   0.2755     203           618649
    110       6114.03418   0.0181   0.0703     223           235714
    120       5749.68262   0.0064   0.0280     243            57023
    130       5666.65820   0.0081   0.0349     263          35702.9
    140       5620.81543   0.0030   0.0084     283          17328.8
    149       5582.19531   0.0043   0.0169     301          28312.3
# Conjugate gradients optimization
#  Step   Current energy Av shift Mx shift   Funcs         Gradient
      0       6358.16992   0.0000   0.0000       1       2.0491e+06
     10       6156.43799   0.0042   0.0261      21          27085.4
     20       6045.88770   0.0130   0.0555      41          65898.5
     30       5931.36768   0.0187   0.0874      61           249547
     40       4805.20752   0.0644   0.4672      81      1.31571e+06
     50       3944.98438   0.0027   0.0179     101      4.50084e+06
     60       3779.31055   0.0063   0.0379     125           371623
     70       3616.68042   0.0076   0.0456     145           196885
     80       3552.26343   0.0044   0.0193     166          58731.8
     90       3494.21582   0.0011   0.0071     186           111306
    100       3270.95923   0.0199   0.1222     206           380543
    110       2129.80225   0.0127   0.0638     226           336072
    120       1918.69434   0.0084   0.0424     246          62847.4
    130       1859.30603   0.0088   0.0304     266          19840.3
    140       1838.03564   0.0062   0.0267     286          10918.6
    148       1827.05737   0.0036   0.0115     301          4531.49
# Molecular dynamics simulation at 150.00 K
#  Step   Current energy Av shift Mx shift   Kinetic energy    Kinetic temp.
      0       1829.01868   0.0000   0.0000         58.33387        157.92802
     10       1980.86206   0.0571   0.2078        501.49716       1357.70959
     20       1753.78857   0.0932   0.2523       1255.68933       3399.54346
     30       1468.91235   0.0816   0.3430       1018.41577       2757.16992
     40       1451.19397   0.0922   0.4143       1327.51147       3593.98853
     50       1047.83276   0.0694   0.1722        672.00073       1819.31604
     60       1408.49316   0.0805   0.3398       1032.45593       2795.18091
     70       1229.13428   0.0701   0.3945       1065.78015       2885.39990
     80       1187.28174   0.0777   0.4967       1224.03577       3313.84741
     90        925.74414   0.0597   0.2757        617.17896       1670.89636
    100        949.20740   0.0613   0.2947        693.23413       1876.80151
    110       1637.15942   0.0597   0.4401        820.73645       2221.98999
    120       1321.32996   0.0639   0.4796        955.14819       2585.88477
    130       1454.48523   0.0498   0.3291        606.28217       1641.39539
    140       1078.42651   0.0572   0.3257        729.89514       1976.05432
    150        768.53363   0.0547   0.6405        984.65143       2665.75928
    160        828.39886   0.0575   0.4619        854.04150       2312.15723
    170        575.21710   0.0494   0.5013        712.40375       1928.69958
    180        441.34924   0.0480   0.3371        515.98865       1396.94250
    190        217.67068   0.0422   0.2550        352.87317        955.33795
    200        157.43588   0.0429   0.2336        424.42493       1149.05090
# Molecular dynamics simulation at 250.00 K
#  Step   Current energy Av shift Mx shift   Kinetic energy    Kinetic temp.
      0        157.80118   0.0000   0.0000         55.40548        149.99995
     10         -0.82190   0.0357   0.1342        222.70622        602.93536
     20         12.07124   0.0364   0.1564        228.65337        619.03613
     30        -71.47919   0.0333   0.1147        174.93518        473.60422
     40        -65.50648   0.0345   0.1127        183.54608        496.91663
     50        -95.36719   0.0307   0.1133        146.41101        396.38037
     60       -106.51517   0.0326   0.1162        158.95201        430.33276
     70       -143.73903   0.0303   0.0988        139.06590        376.49487
     80       -140.99976   0.0324   0.0880        148.12199        401.01254
     90       -152.52654   0.0273   0.0674        103.02873        278.93097
    100       -156.63573   0.0277   0.0761        107.57382        291.23596
    110       -159.47487   0.0280   0.0684        110.01643        297.84888
    120       -177.84149   0.0309   0.0751        127.73753        345.82541
    130       -198.74976   0.0287   0.0655        108.90595        294.84247
    140       -200.64497   0.0283   0.0660        108.73002        294.36615
    150       -201.39853   0.0290   0.0772        110.02146        297.86249
    160       -216.25934   0.0292   0.0667        116.76815        316.12787
    170       -221.06786   0.0279   0.0544        100.08089        270.95026
    180       -233.29755   0.0285   0.0775        107.49477        291.02194
    190       -230.99695   0.0284   0.0652        108.75334        294.42929
    200       -231.68866   0.0276   0.0661        103.46233        280.10489
# Molecular dynamics simulation at 400.00 K
#  Step   Current energy Av shift Mx shift   Kinetic energy    Kinetic temp.
      0       -231.73080   0.0000   0.0000         92.34249        249.99998
     10       -240.87292   0.0267   0.0560         94.81432        256.69199
     20       -240.46872   0.0275   0.0651        104.34098        282.48364
     30       -224.12201   0.0301   0.0705        121.33965        328.50436
     40       -225.48364   0.0314   0.0737        133.92108        362.56622
     50       -214.55737   0.0321   0.0738        137.18292        371.39706
     60       -202.60019   0.0322   0.0804        138.30351        374.43085
     70       -210.71146   0.0344   0.0711        151.93892        411.34613
     80       -219.43826   0.0349   0.0770        159.79526        432.61572
     90       -220.88269   0.0335   0.0731        146.44931        396.48407
    100       -213.49245   0.0326   0.0852        142.32324        385.31351
    110       -232.39197   0.0349   0.0824        165.03355        446.79742
    120       -235.15294   0.0342   0.0779        156.13438        422.70459
    130       -240.80424   0.0338   0.0844        153.39619        415.29144
    140       -243.48354   0.0344   0.0775        159.33904        431.38058
    150       -236.97025   0.0340   0.0802        154.97137        419.55594
    160       -251.12691   0.0340   0.0783        155.30502        420.45923
    170       -256.62924   0.0331   0.0858        147.18860        398.48553
    180       -254.89496   0.0340   0.0745        153.19231        414.73947
    190       -239.18945   0.0317   0.0777        136.53166        369.63388
    200       -252.62271   0.0341   0.0976        155.86990        421.98856
# Molecular dynamics simulation at 700.00 K
#  Step   Current energy Av shift Mx shift   Kinetic energy    Kinetic temp.
      0       -252.69601   0.0000   0.0000        147.74797        399.99994
     10       -258.57269   0.0344   0.0709        152.46829        412.77933
     20       -250.06064   0.0323   0.0701        141.72437        383.69217
     30       -187.59094   0.0389   0.0881        201.97348        546.80536
     40       -203.31227   0.0405   0.0888        216.81160        586.97675
     50       -195.26740   0.0432   0.1051        251.12001        679.86035
     60       -182.71935   0.0415   0.0966        231.02019        625.44385
     70       -162.39900   0.0434   0.0853        239.92775        649.55939
     80       -152.10970   0.0438   0.1260        256.49066        694.40039
     90       -125.16306   0.0443   0.0970        254.79663        689.81415
    100       -120.18468   0.0424   0.0833        233.95499        633.38928
    110       -134.77803   0.0464   0.1154        287.76505        779.06995
    120       -146.29048   0.0475   0.1171        298.53549        808.22888
    130       -147.37059   0.0454   0.1007        274.61887        743.47913
    140       -146.71469   0.0458   0.0795        258.24609        699.15289
    150       -151.86134   0.0471   0.1185        292.63370        792.25092
    160       -152.02934   0.0466   0.1041        281.82135        762.97845
    170       -155.68079   0.0457   0.1126        279.06110        755.50562
    180       -152.80992   0.0457   0.0919        271.79324        735.82928
    190       -143.74141   0.0453   0.0928        259.65659        702.97156
    200       -157.06441   0.0447   0.1224        267.45364        724.08063
# Molecular dynamics simulation at 1000.00 K
#  Step   Current energy Av shift Mx shift   Kinetic energy    Kinetic temp.
      0       -157.60756   0.0000   0.0000        258.55899        700.00000
     10       -168.94072   0.0449   0.1044        269.06180        728.43439
     20       -155.20392   0.0453   0.1058        269.20010        728.80884
     30       -130.08684   0.0518   0.0992        344.47342        932.59723
     40        -87.30587   0.0477   0.1163        304.10764        823.31445
     50        -99.73084   0.0524   0.1335        355.84229        963.37628
     60        -58.96491   0.0508   0.1186        344.86050        933.64520
     70        -41.63253   0.0516   0.1161        355.69559        962.97913
     80        -53.05163   0.0534   0.1142        374.99277       1015.22266
     90        -88.21303   0.0568   0.1112        423.92465       1147.69653
    100        -42.48468   0.0559   0.1298        413.63474       1119.83850
    110        -19.42749   0.0524   0.1080        362.51550        981.44275
    120        -79.56628   0.0537   0.1239        382.07935       1034.40820
    130        -58.42002   0.0539   0.1410        376.78372       1020.07129
    140        -10.72125   0.0511   0.1112        343.94623        931.16992
    150        -27.60220   0.0528   0.1297        367.87378        995.94928
    160        -25.17732   0.0540   0.1343        390.31781       1056.71228
    170        -40.59103   0.0548   0.1109        386.78134       1047.13794
    180        -39.01940   0.0544   0.1279        402.81241       1090.53906
    190        -81.27650   0.0549   0.1116        398.73346       1079.49609
    200        -59.47978   0.0543   0.1120        384.07434       1039.80933
# Molecular dynamics simulation at 1000.00 K
#  Step   Current energy Av shift Mx shift   Kinetic energy    Kinetic temp.
      0        -59.02728   0.0000   0.0000        369.36996        999.99994
     10        -29.74457   0.0523   0.1152        359.51895        973.33020
     20        -40.09986   0.0531   0.1173        362.27176        980.78290
     30        -10.87875   0.0519   0.1078        353.24948        956.35675
     40        -20.79547   0.0543   0.1147        375.91586       1017.72174
     50        -12.34171   0.0528   0.1210        375.71744       1017.18457
     60        -13.80096   0.0550   0.1197        401.02753       1085.70691
     70        -14.09779   0.0521   0.1042        344.12582        931.65619
     80          7.79245   0.0528   0.1382        366.40939        991.98474
     90         31.37711   0.0536   0.1083        366.93881        993.41803
    100         11.78032   0.0527   0.1321        369.01547        999.04022
    110          3.01910   0.0541   0.1319        388.99692       1053.13623
    120         19.48729   0.0521   0.1385        367.29572        994.38428
    130         12.92169   0.0546   0.1497        404.12009       1094.07935
    140         16.25589   0.0562   0.1294        405.36688       1097.45483
    150         -6.80092   0.0560   0.1165        403.27856       1091.80115
    160         45.92491   0.0552   0.1409        410.72955       1111.97327
    170         -8.87982   0.0564   0.1261        416.23981       1126.89124
    180         55.05241   0.0550   0.1196        386.22562       1045.63342
    190         80.35941   0.0515   0.1288        352.71765        954.91693
    200         46.51442   0.0601   0.1370        466.69922       1263.50061
    210        -28.55032   0.0569   0.1253        428.28943       1159.51331
    220         13.69078   0.0558   0.1323        407.04703       1102.00354
    230          0.57570   0.0554   0.1348        400.83939       1085.19751
    240         39.34212   0.0538   0.1318        387.26135       1048.43750
    250         11.47678   0.0537   0.1361        390.09750       1056.11584
    260         70.32211   0.0552   0.1205        398.34933       1078.45618
    270         33.91237   0.0562   0.1137        408.42123       1105.72400
    280          5.21230   0.0588   0.1467        467.19690       1264.84802
    290        -20.81416   0.0610   0.1763        502.77499       1361.16907
    300        -16.66502   0.0584   0.1547        465.66174       1260.69189
    310         80.59433   0.0586   0.1172        455.02002       1231.88147
    320         38.71365   0.0628   0.1848        537.52472       1455.24744
    330         72.12860   0.0596   0.1364        491.34952       1330.23669
    340         69.21509   0.0641   0.1374        538.01538       1456.57581
    350        163.34805   0.0594   0.1234        458.06610       1240.12817
    360        105.89877   0.0604   0.1517        494.42078       1338.55164
    370         79.13286   0.0621   0.1515        509.21457       1378.60303
    380        146.22253   0.0611   0.1599        502.87900       1361.45068
    390         76.22968   0.0608   0.1357        491.99634       1331.98792
    400         75.07689   0.0680   0.1448        581.85852       1575.27283
    410         13.71446   0.0564   0.1265        426.28354       1154.08276
    420         -9.49808   0.0579   0.1573        463.08145       1253.70618
    430         26.78679   0.0553   0.1272        412.89496       1117.83569
    440         33.64034   0.0572   0.1299        425.76474       1152.67822
    450         30.68015   0.0567   0.1331        419.58606       1135.95056
    460         31.16759   0.0585   0.1467        463.03455       1253.57922
    470         86.45839   0.0520   0.1359        372.24826       1007.79242
    480        108.78302   0.0565   0.1318        423.29288       1145.98608
    490         28.65775   0.0624   0.1570        526.42291       1425.19141
    500         46.83939   0.0569   0.1440        426.62112       1154.99670
    510         71.27655   0.0597   0.1524        460.63062       1247.07104
    520         14.49060   0.0617   0.1436        503.41840       1362.91101
    530         26.76274   0.0628   0.1160        500.34348       1354.58618
    540         78.40915   0.0614   0.1493        503.29788       1362.58472
    550        100.51370   0.0598   0.1677        488.52341       1322.58557
    560         77.57629   0.0590   0.1609        470.77740       1274.54163
    570         90.83905   0.0614   0.1220        480.76199       1301.57300
    580         98.24271   0.0598   0.1710        487.59900       1320.08289
    590        104.80515   0.0589   0.1422        471.15295       1275.55835
    600        148.66898   0.0614   0.1463        486.83691       1318.01965
# Molecular dynamics simulation at 800.00 K
#  Step   Current energy Av shift Mx shift   Kinetic energy    Kinetic temp.
      0        149.02283   0.0000   0.0000        369.36996        999.99994
     10          8.27902   0.0562   0.1321        433.00970       1172.29260
     20         71.00179   0.0587   0.1144        439.24567       1189.17529
     30         50.90825   0.0599   0.1234        464.88947       1258.60107
     40         40.61081   0.0572   0.1228        443.61786       1201.01221
     50         32.19835   0.0596   0.1487        461.50458       1249.43713
     60         49.15742   0.0578   0.1614        455.23001       1232.44995
     70         83.12756   0.0584   0.1273        451.00381       1221.00830
     80         43.28609   0.0579   0.1333        448.45059       1214.09595
     90         66.65013   0.0578   0.1333        442.85971       1198.95972
    100         36.45523   0.0601   0.1471        463.47815       1254.78027