# Conjugate gradients optimization
#  Step   Current energy Av shift Mx shift   Funcs         Gradient
      0      10559.75781   0.0000   0.0000       1      1.37545e+06
     10        130.61452   0.0972   0.2627      21          291.146
     20         97.40286   0.0404   0.1021      41           101.77
     30         88.00816   0.0176   0.0847      61          38.7083
     40         84.37456   0.0120   0.0351      81          15.2029
     50         82.75949   0.0088   0.0322     101          6.53882
     60         81.91835   0.0062   0.0329     121          2.16241
     70         81.32635   0.0078   0.0363     141          5.72596
     80         80.18922   0.0075   0.0423     161          6.89159
     90         79.47577   0.0039   0.0155     181         0.941357
    100         79.30097   0.0091   0.0310     202          3.00591
    110         78.81598   0.0036   0.0231     223          1.44779
    120         78.72657   0.0054   0.0143     243         0.590198
    130         78.56664   0.0191   0.0536     263          1.80993
    140         78.12792   0.0096   0.0388     285          8.65469
    148         77.93145   0.0030   0.0090     301         0.604514
# Conjugate gradients optimization
#  Step   Current energy Av shift Mx shift   Funcs         Gradient
      0        822.91028   0.0000   0.0000       1          2598.25
     10        810.46283   0.0064   0.0272      21          699.614
     20        796.58612   0.0244   0.1739      42          5835.59
     30        714.83820   0.0139   0.0739      63          3435.28
     40        697.99005   0.0038   0.0319      83           781.08
     50        693.30066   0.0057   0.0325     103          472.838
     60        687.45880   0.0048   0.0372     123          263.486
     70        681.44092   0.0069   0.0590     143           688.31
     80        676.34198   0.0055   0.0373     164          147.312
     90        675.33881   0.0038   0.0161     184          77.3498
    100        669.53210   0.0054   0.0361     206          1151.74
    110        662.86670   0.0038   0.0396     226          342.626
    120        658.97717   0.0036   0.0226     246          99.3575
    130        658.53851   0.0027   0.0097     278          23.9561
    140        658.31201   0.0029   0.0087     298          15.8753
    142        658.26654   0.0013   0.0038     301          18.4255
# Conjugate gradients optimization
#  Step   Current energy Av shift Mx shift   Funcs         Gradient
      0       3290.76221   0.0000   0.0000       1          432.297
     10       3288.62915   0.0030   0.0096      22          712.897
     20       3286.51196   0.0060   0.0270      42          1041.15
     30       3284.11572   0.0063   0.0222      62          793.507
     40       3273.06714   0.0030   0.0124      83          1658.83
     50       3263.26050   0.0028   0.0109     103          1186.66
     60       3260.76709   0.0017   0.0162     124          832.475
     70       3259.04272   0.0033   0.0158     144          499.625
     80       3256.75049   0.0036   0.0173     165           927.34
     90       3253.18188   0.0024   0.0063     185          723.733
    100       3251.65820   0.0026   0.0088     205          406.157
    110       3250.51147   0.0026   0.0099     225          614.396
    120       3249.33496   0.0034   0.0149     246          402.181
    130       3248.22729   0.0031   0.0102     266          339.773
    140       3247.16919   0.0010   0.0025     286            260.9
    148       3246.88110   0.0005   0.0015     301          153.856
# Conjugate gradients optimization
#  Step   Current energy Av shift Mx shift   Funcs         Gradient
      0       6493.42969   0.0000   0.0000       1          122.404
     10       6492.60889   0.0050   0.0149      21          651.315
     20       6491.76123   0.0029   0.0077      41          1418.68
     30       6490.65088   0.0044   0.0108      61          1120.45
     40       6489.33643   0.0134   0.0329      93          1793.71
     50       6487.39307   0.0052   0.0227     113          1780.61
     60       6485.99707   0.0017   0.0058     133          876.272
     70       6485.32861   0.0003   0.0012     153          217.824
     71       6485.29492   0.0002   0.0007     155           184.34
# Conjugate gradients optimization
#  Step   Current energy Av shift Mx shift   Funcs         Gradient
      0       6485.40381   0.0000   0.0000       1          224.427
      1       6485.40332   0.0002   0.0008       4          215.738
# Conjugate gradients optimization
#  Step   Current energy Av shift Mx shift   Funcs         Gradient
      0       6485.28418   0.0000   0.0000       1          214.863
      2       6485.25635   0.0001   0.0007       6          63.0721
# Conjugate gradients optimization
#  Step   Current energy Av shift Mx shift   Funcs         Gradient
      0       6485.36084   0.0000   0.0000       1          63.7688
      4       6485.22949   0.0003   0.0007       9          118.023
# Conjugate gradients optimization
#  Step   Current energy Av shift Mx shift   Funcs         Gradient
      0       6485.17090   0.0000   0.0000       1          136.114
      1       6485.16846   0.0001   0.0004       4          52.5792
# Conjugate gradients optimization
#  Step   Current energy Av shift Mx shift   Funcs         Gradient
      0       6485.15283   0.0000   0.0000       1          52.3151
      3       6485.10742   0.0001   0.0008       7          74.1292
# Conjugate gradients optimization
#  Step   Current energy Av shift Mx shift   Funcs         Gradient
      0       6485.11865   0.0000   0.0000       1           122.33
     10       6484.75146   0.0008   0.0019      22          297.552
     20       6483.92627   0.0031   0.0096      42          1039.71
     30       6482.59229   0.0030   0.0088      62          1179.34
     40       6480.75732   0.0007   0.0036      95          3748.23
     42       6480.55029   0.0002   0.0008      99          393.327
# Conjugate gradients optimization
#  Step   Current energy Av shift Mx shift   Funcs         Gradient
      0       6480.34131   0.0000   0.0000       1          392.287
     10       6479.54248   0.0027   0.0118      21          1178.02
     13       6479.43750   0.0002   0.0006      27            69.47
# Conjugate gradients optimization
#  Step   Current energy Av shift Mx shift   Funcs         Gradient
      0       6479.32031   0.0000   0.0000       1          86.5131
      1       6479.31592   0.0002   0.0010       3          249.163
# Conjugate gradients optimization
#  Step   Current energy Av shift Mx shift   Funcs         Gradient
      0       6479.26758   0.0000   0.0000       1          274.061
      1       6479.25000   0.0001   0.0008       4          85.2916
# Conjugate gradients optimization
#  Step   Current energy Av shift Mx shift   Funcs         Gradient
      0       6479.25000   0.0000   0.0000       1          85.2916
      1       6479.24561   0.0001   0.0005       4          79.4613
# Conjugate gradients optimization
#  Step   Current energy Av shift Mx shift   Funcs         Gradient
      0       6479.24561   0.0000   0.0000       1          79.4613
      1       6479.24072   0.0001   0.0007       4           191.67
# Conjugate gradients optimization
#  Step   Current energy Av shift Mx shift   Funcs         Gradient
      0       6479.29346   0.0000   0.0000       1          204.245
      1       6479.28760   0.0001   0.0005       5          36.8916
# Conjugate gradients optimization
#  Step   Current energy Av shift Mx shift   Funcs         Gradient
      0       6479.23584   0.0000   0.0000       1          34.1543
      4       6479.09619   0.0001   0.0007       9          54.0387
# Conjugate gradients optimization
#  Step   Current energy Av shift Mx shift   Funcs         Gradient
      0       6479.15674   0.0000   0.0000       1          83.0246
      2       6479.13477   0.0002   0.0007       6          67.6249
# Conjugate gradients optimization
#  Step   Current energy Av shift Mx shift   Funcs         Gradient
      0       6479.08594   0.0000   0.0000       1           111.72
      2       6479.05518   0.0001   0.0008       5          36.2871
# Conjugate gradients optimization
#  Step   Current energy Av shift Mx shift   Funcs         Gradient
      0       6479.11328   0.0000   0.0000       1           66.961
      2       6479.10107   0.0001   0.0004       6          37.6838
# Conjugate gradients optimization
#  Step   Current energy Av shift Mx shift   Funcs         Gradient
      0       6479.05029   0.0000   0.0000       1          70.6228
      1       6479.05127   0.0000   0.0000     301          70.6228
# Conjugate gradients optimization
#  Step   Current energy Av shift Mx shift   Funcs         Gradient
      0       6479.05029   0.0000   0.0000       1          70.6228
      1       6479.05127   0.0000   0.0000     301          70.6228
# Conjugate gradients optimization
#  Step   Current energy Av shift Mx shift   Funcs         Gradient
      0   36412268.00000   0.0000   0.0000       1      3.28178e+17
     10       9786.54102   0.0596   0.3134      21      4.36364e+06
     20       7447.83008   0.0282   0.0874      41           636091
     30       6674.92725   0.0188   0.0719      61      1.02733e+06
     40       6382.37305   0.0024   0.0119      82           378906
     46       6346.53613   0.0001   0.0006     120      1.76961e+08
# Conjugate gradients optimization
#  Step   Current energy Av shift Mx shift   Funcs         Gradient
      0      11206.95605   0.0000   0.0000       1      2.34001e+08
     10       6962.46387   0.0405   0.1196      21      1.37606e+06
     20       5907.79590   0.0172   0.0803      41           598664
     30       5430.77393   0.0188   0.0955      61           270339
     40       5160.58887   0.0146   0.0605      81           174416
     50       5057.33301   0.0063   0.0254     101           160618
     60       4936.65088   0.0098   0.0396     121          82215.4
     70       4857.15625   0.0058   0.0197     141          46909.6
     80       4821.30859   0.0028   0.0171     161          22571.9
     90       4762.94971   0.0076   0.0290     181          67575.6
    100       4707.07861   0.0054   0.0178     201            33131
    110       4669.41406   0.0130   0.0402     221          41049.5
    120       4599.15771   0.0077   0.0256     241          27742.7
    130       4556.54883   0.0079   0.0226     261          17383.2
    140       4487.81494   0.0069   0.0346     281           122635
# Conjugate gradients optimization
#  Step   Current energy Av shift Mx shift   Funcs         Gradient
      0       5900.81836   0.0000   0.0000       1      3.39474e+06
     10       4837.29150   0.0132   0.0588      21           213861
     20       4534.61621   0.0116   0.0413      41           218403
     30       4331.95508   0.0093   0.0337      61           132951
     40       4155.69189   0.0198   0.0658      81           132988
     50       3971.59277   0.0084   0.0292     102          71038.6
     60       3883.70654   0.0179   0.0677     122          92101.9
     70       3778.57959   0.0035   0.0393     142          50116.7
     80       3717.71655   0.0056   0.0389     162          31058.2
     90       3686.56177   0.0125   0.0643     184          33500.2
    100       3638.11670   0.0047   0.0127     204          10403.6
    110       3609.38208   0.0072   0.0272     224          33242.2
    120       3571.12231   0.0041   0.0176     244          28009.8
    130       3516.64526   0.0024   0.0096     265          16421.2
    140       3477.87305   0.0053   0.0332     286          19793.9
    147       3466.18945   0.0053   0.0195     301          11680.3
# Conjugate gradients optimization
#  Step   Current energy Av shift Mx shift   Funcs         Gradient
      0       3805.64795   0.0000   0.0000       1           250384
     10       3716.68896   0.0173   0.0846      21           225729
     20       3568.96094   0.0147   0.0644      43           148526
     30       3490.31567   0.0053   0.0214      63          23586.1
     40       3460.85840   0.0032   0.0195      83            15928
     50       3422.76392   0.0120   0.0363     103          49870.8
     60       3372.04639   0.0018   0.0138     123          9958.55
     70       3353.13257   0.0010   0.0031     144          7359.71
# Molecular dynamics simulation at 150.00 K
#  Step   Current energy Av shift Mx shift   Kinetic energy    Kinetic temp.
      0       3336.62354   0.0000   0.0000         58.85750        159.34566
     10       2949.01660   0.0984   0.2849       1443.84900       3908.95044
     20       2416.01367   0.1283   0.3584       2265.99121       6134.74658
     30       1665.34021   0.0912   0.2631       1143.37915       3095.48486
     40       1495.89197   0.1049   0.2849       1526.38513       4132.40186
     50       1284.38892   0.0734   0.2686        787.32910       2131.54590
     60       1280.30200   0.0795   0.2197        897.18378       2428.95703
     70       1185.38647   0.0703   0.3837        863.41718       2337.54028
     80       1721.40979   0.0716   0.4466        900.41290       2437.69922
     90       1035.90247   0.0743   0.4211       1211.56531       3280.08594
    100       2179.71729   0.0815   0.5238       1622.61157       4392.91650
    110       1368.86328   0.0662   0.4962       1107.54529       2998.47119
    120       1268.42261   0.0607   0.3914        805.30261       2180.20581
    130        511.52313   0.0634   0.4567       1087.66919       2944.66040
    140       1532.56348   0.0650   0.4548       1149.56458       3112.23071
    150        704.66760   0.0582   0.4178        939.38873       2543.21899
    160        998.50903   0.0536   0.2035        551.38373       1492.76807
    170        904.02325   0.0615   0.5032       1047.15723       2834.98193
    180       1012.48230   0.0578   0.4094        872.89709       2363.20532
    190        460.12875   0.0567   0.3920        896.15137       2426.16187
    200        744.48889   0.0525   0.3363        607.19891       1643.87720
# Molecular dynamics simulation at 250.00 K
#  Step   Current energy Av shift Mx shift   Kinetic energy    Kinetic temp.
      0        746.25464   0.0000   0.0000         55.40550        150.00000
     10        704.26129   0.0507   0.4700        837.02625       2266.09180
     20        756.22797   0.0578   0.4604       1109.42102       3003.54956
     30        514.73724   0.0506   0.5029        873.73468       2365.47290
     40       1123.90295   0.0544   0.5392        974.60175       2638.55151
     50        446.75513   0.0508   0.5527        933.70471       2527.83057
     60        737.47748   0.0459   0.4039        626.38788       1695.82776
     70        413.12094   0.0512   0.5250        956.97998       2590.84399
     80        542.65369   0.0500   0.4323        832.82812       2254.72607
     90         94.02441   0.0425   0.4136        646.32709       1749.80945
    100         87.09604   0.0453   0.4141        608.17352       1646.51587
    110         36.09251   0.0374   0.3802        464.19354       1256.71704
    120        244.42047   0.0420   0.4036        635.47626       1720.43286
    130        116.37454   0.0333   0.3304        321.29410        869.84357
    140         -8.29433   0.0351   0.3458        387.34918       1048.67529
    150        -52.61730   0.0316   0.2569        290.37759        786.14288
    160        -82.60094   0.0314   0.1741        216.22821        585.39734
    170       -155.00597   0.0278   0.1369        135.42488        366.63748
    180       -167.33508   0.0315   0.1804        211.29660        572.04596
    190       -225.94734   0.0260   0.1291        127.55713        345.33701
    200       -197.09494   0.0272   0.1445        129.85184        351.54950
# Molecular dynamics simulation at 400.00 K
#  Step   Current energy Av shift Mx shift   Kinetic energy    Kinetic temp.
      0       -196.09152   0.0000   0.0000         92.34248        249.99997
     10       -224.95158   0.0268   0.1278        115.80495        313.52020
     20       -218.99133   0.0269   0.1413        130.79585        354.10526
     30       -217.10739   0.0287   0.1062        131.11578        354.97141
     40       -211.17273   0.0276   0.1091        124.06316        335.87778
     50       -195.31120   0.0298   0.1152        134.28416        363.54919
     60       -208.56123   0.0309   0.0913        136.18568        368.69720
     70       -219.44521   0.0327   0.1127        157.01703        425.09418
     80       -206.68172   0.0336   0.0983        154.48810        418.24756
     90       -210.33849   0.0335   0.1039        155.44646        420.84213
    100       -214.76593   0.0339   0.0912        158.88266        430.14502
    110       -211.89401   0.0331   0.1219        155.83607        421.89697
    120       -194.49533   0.0333   0.0833        150.91077        408.56262
    130       -210.66035   0.0338   0.0935        160.26152        433.87802
    140       -213.16208   0.0341   0.0743        151.22670        409.41794
    150       -198.93192   0.0342   0.0798        158.12836        428.10287
    160       -193.23148   0.0337   0.0703        151.30798        409.63800
    170       -215.85890   0.0345   0.0862        159.50511        431.83020
    180       -211.66028   0.0360   0.1130        175.55846        475.29163
    190       -207.15057   0.0335   0.0726        147.85905        400.30069
    200       -196.54434   0.0333   0.0725        145.67679        394.39261
# Molecular dynamics simulation at 700.00 K
#  Step   Current energy Av shift Mx shift   Kinetic energy    Kinetic temp.
      0       -195.01260   0.0000   0.0000        147.74799        399.99997
     10       -215.84842   0.0342   0.0894        156.34756        423.28174
     20       -229.23524   0.0356   0.0753        163.53413        442.73801
     30       -161.00549   0.0413   0.1141        223.39809        604.80847
     40       -156.88069   0.0414   0.0912        222.79189        603.16730
     50       -165.63586   0.0427   0.1124        245.53217        664.73230
     60       -164.36295   0.0443   0.1141        258.83038        700.73474
     70       -147.74406   0.0432   0.0996        244.30446        661.40851
     80       -164.88904   0.0442   0.1336        264.73288        716.71466
     90       -177.20981   0.0445   0.1060        268.48590        726.87524
    100       -140.81049   0.0416   0.1053        231.99979        628.09595
    110       -105.85678   0.0439   0.1095        249.79036        676.26056
    120       -116.71455   0.0433   0.0918        248.91501        673.89075
    130       -103.36368   0.0460   0.1073        276.17688        747.69714
    140        -90.95327   0.0439   0.1180        253.23334        685.58179
    150       -105.83342   0.0463   0.1163        287.90576        779.45087
    160        -77.76471   0.0456   0.1130        269.47647        729.55701
    170        -91.47635   0.0429   0.1103        249.36696        675.11432
    180       -105.35352   0.0463   0.1126        281.08566        760.98676
    190        -81.98571   0.0429   0.0866        240.68401        651.60681
    200        -95.84226   0.0431   0.1413        251.41055        680.64697
# Molecular dynamics simulation at 1000.00 K
#  Step   Current energy Av shift Mx shift   Kinetic energy    Kinetic temp.
      0        -95.84226   0.0000   0.0000        258.55902        700.00006
     10        -74.21464   0.0442   0.1091        267.10507        723.13690
     20        -82.40739   0.0484   0.1062        315.09433        853.05884
     30        -84.02116   0.0505   0.1094        332.54330        900.29865
     40        -26.46375   0.0486   0.1077        306.23569        829.07574
     50        -44.03665   0.0526   0.1167        365.97363        990.80499
     60        -28.96764   0.0528   0.1305        382.95636       1036.78259
     70        -61.10570   0.0532   0.1232        373.61139       1011.48279
     80         -0.22118   0.0517   0.1213        349.18848        945.36237
     90        -35.57930   0.0560   0.1205        410.03683       1110.09790
    100         -0.11612   0.0520   0.1030        353.78802        957.81476
    110        -29.50771   0.0564   0.1182        410.24344       1110.65723
    120         -2.03029   0.0531   0.1174        376.67502       1019.77704
    130          7.48958   0.0549   0.1138        385.24207       1042.97070
    140         -7.21251   0.0562   0.1264        407.81326       1104.07800
    150        -30.57204   0.0534   0.1150        374.75861       1014.58868
    160        -25.30029   0.0550   0.1266        387.73041       1049.70740
    170        -17.67332   0.0537   0.1157        378.30069       1024.17822
    180        -27.28450   0.0540   0.1077        387.49326       1049.06531
    190        -49.81703   0.0539   0.1292        379.56064       1027.58923
    200        -52.82323   0.0557   0.1180        395.34763       1070.32959
# Molecular dynamics simulation at 1000.00 K
#  Step   Current energy Av shift Mx shift   Kinetic energy    Kinetic temp.
      0        -53.03233   0.0000   0.0000        369.36996        999.99994
     10        -16.64915   0.0513   0.1126        344.00195        931.32080
     20        -79.06406   0.0540   0.1191        385.27478       1043.05920
     30        -52.75616   0.0534   0.1160        377.40674       1021.75800
     40        -47.10890   0.0520   0.1323        350.61450        949.22302
     50        -35.84390   0.0528   0.1460        370.15683       1002.13025
     60        -47.72874   0.0548   0.1272        392.82376       1063.49670
     70        -56.35591   0.0542   0.1253        387.81570       1049.93835
     80        -74.21339   0.0565   0.1253        420.83319       1139.32703
     90        -21.11926   0.0533   0.1211        374.20200       1013.08179
    100        -54.08973   0.0551   0.1348        395.62735       1071.08691
    110        -87.00910   0.0574   0.1298        440.36627       1192.20911
    120        -50.08286   0.0566   0.1238        419.78296       1136.48364
    130        -47.12080   0.0552   0.1220        414.48804       1122.14868
    140        -29.19971   0.0541   0.1107        393.72205       1065.92859
    150         18.29480   0.0544   0.1151        382.39069       1035.25110
    160        -45.55983   0.0564   0.1408        421.77579       1141.87891
    170        -25.80312   0.0568   0.1204        407.84061       1104.15198
    180         -1.76529   0.0554   0.1164        399.51715       1081.61780
    190         -2.78694   0.0577   0.1153        427.24588       1156.68811
    200        -28.59898   0.0567   0.1308        411.99533       1115.40015
    210        -47.74449   0.0559   0.1460        410.54047       1111.46143
    220        -29.52170   0.0551   0.1377        401.46048       1086.87903
    230        -50.18195   0.0580   0.1234        434.16846       1175.42969
    240        -50.09283   0.0554   0.1271        402.16449       1088.78503
    250        -47.07307   0.0584   0.1325        442.91080       1199.09802
    260        -32.32770   0.0547   0.1552        397.91983       1077.29333
    270        -52.57710   0.0560   0.1300        411.21069       1113.27588
    280        -65.71376   0.0578   0.1205        446.79193       1209.60547
    290         10.35286   0.0558   0.1209        417.10324       1129.22888
    300        -10.89470   0.0575   0.1229        426.83206       1155.56775
    310        -22.25662   0.0553   0.1361        418.52966       1133.09058
    320          8.82455   0.0582   0.1375        441.63162       1195.63489
    330         11.05420   0.0582   0.1393        437.93933       1185.63867
    340          5.95615   0.0569   0.1276        427.55167       1157.51599
    350         35.26830   0.0559   0.1219        408.27908       1105.33911
    360         29.44904   0.0575   0.1314        439.75009       1190.54089
    370         30.20132   0.0573   0.1281        424.51895       1149.30554
    380         -9.53236   0.0585   0.1137        453.16446       1226.85779
    390         53.13173   0.0559   0.1233        413.55649       1119.62671
    400         18.66547   0.0588   0.1299        456.17703       1235.01379
    410        -44.61446   0.0581   0.1606        442.39417       1197.69934
    420        -14.03453   0.0566   0.1103        406.16852       1099.62512
    430          9.15564   0.0569   0.1170        423.20670       1145.75281
    440        -28.39647   0.0553   0.1459        409.93271       1109.81592
    450         -4.76518   0.0575   0.1192        430.92700       1166.65405
    460         45.26097   0.0568   0.1221        419.21552       1134.94739
    470        -27.36331   0.0587   0.1480        451.01569       1221.04041
    480         10.44089   0.0578   0.1257        433.92642       1174.77441
    490         51.92387   0.0581   0.1255        437.60944       1184.74548
    500          3.97435   0.0557   0.1389        416.88300       1128.63257
    510         29.46811   0.0563   0.1218        423.64337       1146.93506
    520         35.73114   0.0588   0.1189        448.19116       1213.39355
    530          5.05376   0.0583   0.1425        456.53677       1235.98779
    540         40.09143   0.0575   0.1246        430.37384       1165.15649
    550         26.71613   0.0566   0.1198        431.94275       1169.40405
    560          7.54312   0.0572   0.1382        427.86871       1158.37439
    570         26.51608   0.0584   0.1294        452.20996       1224.27368
    580         38.69031   0.0582   0.1336        442.73315       1198.61707
    590         17.47943   0.0579   0.1357        459.41910       1243.79114
    600         31.45464   0.0568   0.1406        422.80231       1144.65796
# Molecular dynamics simulation at 800.00 K
#  Step   Current energy Av shift Mx shift   Kinetic energy    Kinetic temp.
      0         32.40816   0.0000   0.0000        369.36996        999.99994
     10        -40.49263   0.0601   0.1376        466.27963       1262.36475
     20         19.21602   0.0536   0.1228        382.40048       1035.27759
     30         -4.15244   0.0600   0.1332        466.99103       1264.29065
     40         -4.03851   0.0559   0.1323        418.90692       1134.11194
     50         23.82951   0.0586   0.1149        444.12415       1202.38293
     60        -15.79926   0.0601   0.1756        495.62247       1341.80493
     70         38.63269   0.0557   0.1294        409.61713       1108.96155
     80          2.73941   0.0604   0.1307        474.39746       1284.34216
     90        -23.82008   0.0605   0.1447        480.15286       1299.92383
    100         44.82651   0.0574   0.1364        437.93805       1185.63513
    110         11.91510   0.0589   0.1560        457.06830       1237.42676
    120         47.31024   0.0561   0.1271        420.89053       1139.48218
    130        -24.84007   0.0655   0.1639        548.99481       1486.30054
    140        -16.06255   0.0617   0.1211        495.43396       1341.29456
    150          4.63240   0.0589   0.2244        489.75354       1325.91589
    160         -9.50214   0.0612   0.1327        485.05014       1313.18237
    170        -16.63356   0.0610   0.1510        503.54266       1363.24744
    180         30.39458   0.0604   0.1156        466.14639       1262.00403
    190          2.25127   0.0615   0.1446        492.53702       1333.45166
    200         26.07591   0.0602   0.1495        469.90231       1272.17249
    210        -53.43339   0.0554   0.1193        407.05838       1102.03430
    220        -27.23822   0.0549   0.1188        387.85678       1050.04956
    230        -22.70824   0.0552   0.1239        403.83167       1093.29858
    240        -19.90361   0.0558   0.1282        396.07617       1072.30200
    250         -6.25504   0.0554   0.1333        403.58185       1092.62219
    260         -3.69145   0.0541   0.1161        385.31204       1043.16016
    270        -20.23936   0.0581   0.1145        429.60541       1163.07617
    280        -24.06693   0.0568   0.1268        430.64664       1165.89502
    290        -13.69426   0.0564   0.1308        418.55832       1133.16821
    300        -23.37927   0.0575   0.1272        431.78445       1168.97546
    310         -3.56628   0.0560   0.1105        405.31116       1097.30396
    320         33.38589   0.0546   0.1549        406.90527       1101.61975
    330         53.45399   0.0596   0.1305        450.51688       1219.68994
    340         47.14204   0.0606   0.1168        464.88562       1258.59070
    350         20.63358   0.0638   0.1328        529.02087       1432.22485
    360         45.56642   0.0575   0.1337        451.90186       1223.43958
    370         41.98871   0.0628   0.1248        502.65814       1360.85266
    380         66.70062   0.0591   0.1601        453.87302       1228.77612
    390         71.89636   0.0606   0.1347        488.96085       1323.76990
    400         36.36984   0.0638   0.1424        528.30280       1430.28076
    410        -25.82013   0.0552   0.1293        385.32028       1043.18250
    420        -49.98092   0.0539   0.1074        370.00378       1001.71588
    430        -53.04982   0.0549   0.1056        389.55405       1054.64453
    440        -39.72334   0.0536   0.1391        369.95459       1001.58270
    450        -28.85605   0.0552   0.1468        399.19156       1080.73633
    460        -47.64436   0.0550   0.1067        384.37637       1040.62695
    470        -63.92519   0.0562   0.1223        406.17099       1099.63184
    480        -63.12041   0.0563   0.1391        409.06119       1107.45654
    490        -61.22478   0.0554   0.1322        419.37204       1135.37122
    500        -62.68091   0.0563   0.1188        415.49130       1124.86487